*SPEF "ieee 1481-1999"
*DESIGN "uart_top"
*DATE "10:08:07 Thursday August 20, 2026"
*VENDOR "The OpenROAD Project"
*PROGRAM "OpenROAD"
*VERSION "dcf36133a369abc8f3c5e5738cd4d82e4903c0e0"
*DESIGN_FLOW "NAME_SCOPE LOCAL" "PIN_CAP NONE"
*DIVIDER /
*DELIMITER :
*BUS_DELIMITER []
*T_UNIT 1 NS
*C_UNIT 1 PF
*R_UNIT 1 OHM
*L_UNIT 1 HENRY

*NAME_MAP
*3 clk
*4 reset
*5 rx
*6 rx_data[0]
*7 rx_data[1]
*8 rx_data[2]
*9 rx_data[3]
*10 rx_data[4]
*11 rx_data[5]
*12 rx_data[6]
*13 rx_data[7]
*14 rx_valid
*15 tx
*16 tx_busy
*17 tx_data[0]
*18 tx_data[1]
*19 tx_data[2]
*20 tx_data[3]
*21 tx_data[4]
*22 tx_data[5]
*23 tx_data[6]
*24 tx_data[7]
*25 tx_start
*26 _000_
*27 _001_
*28 _002_
*29 _003_
*30 _004_
*31 _005_
*32 _006_
*33 _007_
*34 _008_
*35 _009_
*36 _010_
*37 _011_
*38 _012_
*39 _013_
*40 _014_
*41 _015_
*42 _016_
*43 _017_
*44 _018_
*45 _019_
*46 _020_
*47 _021_
*48 _022_
*49 _023_
*50 _024_
*51 _025_
*52 _026_
*53 _027_
*54 _028_
*55 _029_
*56 _030_
*57 _031_
*58 _032_
*59 _033_
*60 _034_
*61 _035_
*62 _036_
*63 _037_
*64 _038_
*65 _039_
*66 _040_
*67 _041_
*68 _042_
*69 _043_
*70 _044_
*71 _045_
*72 _046_
*73 _047_
*74 _048_
*75 _049_
*76 _050_
*77 _051_
*78 _052_
*79 _053_
*80 _054_
*81 _055_
*82 _056_
*83 _057_
*84 _058_
*85 _059_
*86 _060_
*87 _061_
*88 _062_
*89 _063_
*90 _064_
*91 _065_
*92 _066_
*93 _067_
*94 _068_
*95 _069_
*96 _070_
*97 _071_
*98 _072_
*99 _073_
*100 _074_
*101 _075_
*102 _076_
*103 _077_
*104 _078_
*105 _079_
*106 _080_
*107 _081_
*108 _082_
*109 _083_
*110 _084_
*111 _085_
*112 _086_
*113 _087_
*114 _088_
*115 _089_
*116 _090_
*117 _091_
*118 _092_
*119 _093_
*120 _094_
*121 _095_
*122 _096_
*123 _097_
*124 _098_
*125 _099_
*126 _100_
*127 _101_
*128 _102_
*129 _103_
*130 _104_
*131 _105_
*132 _106_
*133 _107_
*134 _108_
*135 _109_
*136 _110_
*137 _111_
*138 _112_
*139 _113_
*140 _114_
*141 _115_
*142 _116_
*143 _117_
*144 _118_
*145 _119_
*146 _120_
*147 _121_
*148 _122_
*149 _123_
*150 _124_
*151 _125_
*152 _126_
*153 _127_
*154 _128_
*155 _129_
*156 _130_
*157 _131_
*158 _132_
*159 _133_
*160 _134_
*161 _135_
*162 _136_
*163 _137_
*164 _138_
*165 _139_
*166 _140_
*167 _141_
*168 _142_
*169 _143_
*170 _144_
*171 _145_
*172 _146_
*173 _147_
*174 _148_
*175 _149_
*176 _150_
*177 _151_
*178 _152_
*179 _153_
*180 _154_
*181 _155_
*182 _156_
*183 _157_
*184 _158_
*185 _159_
*186 _160_
*187 _161_
*188 _162_
*189 _163_
*190 _164_
*191 _165_
*192 _166_
*193 _167_
*194 _168_
*195 _169_
*196 _170_
*197 _171_
*198 _172_
*199 _173_
*200 _174_
*201 _175_
*202 _176_
*203 _177_
*204 _178_
*205 _179_
*206 _180_
*207 _181_
*208 _182_
*209 _183_
*210 _184_
*211 _185_
*212 _186_
*213 _187_
*214 _188_
*215 _189_
*216 _190_
*217 _191_
*218 _192_
*219 _193_
*220 _194_
*221 _195_
*222 _196_
*223 _197_
*224 _198_
*225 _199_
*226 _200_
*227 _201_
*228 _202_
*229 _203_
*230 _204_
*231 _205_
*232 _206_
*233 _207_
*234 _208_
*235 _209_
*236 _210_
*237 _211_
*238 _212_
*239 clknet_0_clk
*240 clknet_3_0__leaf_clk
*241 clknet_3_1__leaf_clk
*242 clknet_3_2__leaf_clk
*243 clknet_3_3__leaf_clk
*244 clknet_3_4__leaf_clk
*245 clknet_3_5__leaf_clk
*246 clknet_3_6__leaf_clk
*247 clknet_3_7__leaf_clk
*248 net1
*249 net10
*250 net11
*251 net12
*252 net13
*253 net14
*254 net15
*255 net16
*256 net17
*257 net18
*258 net19
*259 net2
*260 net20
*261 net21
*262 net22
*263 net23
*264 net24
*265 net25
*266 net26
*267 net27
*268 net28
*269 net29
*270 net3
*271 net30
*272 net31
*273 net32
*274 net33
*275 net34
*276 net35
*277 net36
*278 net37
*279 net38
*280 net39
*281 net4
*282 net40
*283 net41
*284 net42
*285 net43
*286 net44
*287 net45
*288 net46
*289 net47
*290 net48
*291 net49
*292 net5
*293 net50
*294 net51
*295 net52
*296 net53
*297 net54
*298 net55
*299 net56
*300 net57
*301 net58
*302 net59
*303 net6
*304 net60
*305 net61
*306 net62
*307 net63
*308 net64
*309 net65
*310 net66
*311 net67
*312 net68
*313 net69
*314 net7
*315 net70
*316 net71
*317 net72
*318 net73
*319 net74
*320 net75
*321 net76
*322 net77
*323 net78
*324 net79
*325 net8
*326 net80
*327 net81
*328 net82
*329 net83
*330 net84
*331 net85
*332 net86
*333 net87
*334 net88
*335 net89
*336 net9
*337 net90
*338 net91
*339 net92
*340 rx_inst\.baud_counter\[0\]
*341 rx_inst\.baud_counter\[10\]
*342 rx_inst\.baud_counter\[11\]
*343 rx_inst\.baud_counter\[12\]
*344 rx_inst\.baud_counter\[1\]
*345 rx_inst\.baud_counter\[2\]
*346 rx_inst\.baud_counter\[3\]
*347 rx_inst\.baud_counter\[4\]
*348 rx_inst\.baud_counter\[5\]
*349 rx_inst\.baud_counter\[6\]
*350 rx_inst\.baud_counter\[7\]
*351 rx_inst\.baud_counter\[8\]
*352 rx_inst\.baud_counter\[9\]
*353 rx_inst\.bit_counter\[0\]
*354 rx_inst\.bit_counter\[1\]
*355 rx_inst\.bit_counter\[2\]
*356 rx_inst\.rx_reg\[0\]
*357 rx_inst\.rx_reg\[1\]
*358 rx_inst\.rx_reg\[2\]
*359 rx_inst\.rx_reg\[3\]
*360 rx_inst\.rx_reg\[4\]
*361 rx_inst\.rx_reg\[5\]
*362 rx_inst\.rx_reg\[6\]
*363 rx_inst\.rx_reg\[7\]
*364 rx_inst\.rx_sync1
*365 rx_inst\.rx_sync2
*366 rx_inst\.rx_syncd
*367 rx_inst\.state\[0\]
*368 rx_inst\.state\[1\]
*369 rx_inst\.state\[2\]
*370 rx_inst\.state\[3\]
*371 tx_inst\.baud_counter\[0\]
*372 tx_inst\.baud_counter\[10\]
*373 tx_inst\.baud_counter\[11\]
*374 tx_inst\.baud_counter\[12\]
*375 tx_inst\.baud_counter\[1\]
*376 tx_inst\.baud_counter\[2\]
*377 tx_inst\.baud_counter\[3\]
*378 tx_inst\.baud_counter\[4\]
*379 tx_inst\.baud_counter\[5\]
*380 tx_inst\.baud_counter\[6\]
*381 tx_inst\.baud_counter\[7\]
*382 tx_inst\.baud_counter\[8\]
*383 tx_inst\.baud_counter\[9\]
*384 tx_inst\.bit_counter\[0\]
*385 tx_inst\.bit_counter\[1\]
*386 tx_inst\.bit_counter\[2\]
*387 tx_inst\.state\[0\]
*388 tx_inst\.state\[1\]
*389 tx_inst\.tx_reg\[0\]
*390 tx_inst\.tx_reg\[1\]
*391 tx_inst\.tx_reg\[2\]
*392 tx_inst\.tx_reg\[3\]
*393 tx_inst\.tx_reg\[4\]
*394 tx_inst\.tx_reg\[5\]
*395 tx_inst\.tx_reg\[6\]
*396 tx_inst\.tx_reg\[7\]
*397 FILLER_0_100
*398 FILLER_0_103
*399 FILLER_0_106
*400 FILLER_0_109
*401 FILLER_0_113
*402 FILLER_0_116
*403 FILLER_0_119
*404 FILLER_0_141
*405 FILLER_0_150
*406 FILLER_0_153
*407 FILLER_0_156
*408 FILLER_0_159
*409 FILLER_0_162
*410 FILLER_0_165
*411 FILLER_0_169
*412 FILLER_0_18
*413 FILLER_0_3
*414 FILLER_0_36
*415 FILLER_0_39
*416 FILLER_0_42
*417 FILLER_0_52
*418 FILLER_0_55
*419 FILLER_0_57
*420 FILLER_0_6
*421 FILLER_0_60
*422 FILLER_0_67
*423 FILLER_0_77
*424 FILLER_0_80
*425 FILLER_0_83
*426 FILLER_0_85
*427 FILLER_0_94
*428 FILLER_0_97
*429 FILLER_10_13
*430 FILLER_10_135
*431 FILLER_10_138
*432 FILLER_10_141
*433 FILLER_10_144
*434 FILLER_10_147
*435 FILLER_10_150
*436 FILLER_10_157
*437 FILLER_10_16
*438 FILLER_10_160
*439 FILLER_10_163
*440 FILLER_10_166
*441 FILLER_10_169
*442 FILLER_10_19
*443 FILLER_10_22
*444 FILLER_10_25
*445 FILLER_10_3
*446 FILLER_10_37
*447 FILLER_10_52
*448 FILLER_10_55
*449 FILLER_10_64
*450 FILLER_10_83
*451 FILLER_10_85
*452 FILLER_10_88
*453 FILLER_10_91
*454 FILLER_10_94
*455 FILLER_10_97
*456 FILLER_11_121
*457 FILLER_11_13
*458 FILLER_11_131
*459 FILLER_11_134
*460 FILLER_11_137
*461 FILLER_11_140
*462 FILLER_11_151
*463 FILLER_11_158
*464 FILLER_11_161
*465 FILLER_11_164
*466 FILLER_11_167
*467 FILLER_11_169
*468 FILLER_11_62
*469 FILLER_11_83
*470 FILLER_11_86
*471 FILLER_12_114
*472 FILLER_12_117
*473 FILLER_12_120
*474 FILLER_12_123
*475 FILLER_12_126
*476 FILLER_12_132
*477 FILLER_12_135
*478 FILLER_12_138
*479 FILLER_12_141
*480 FILLER_12_22
*481 FILLER_12_25
*482 FILLER_12_29
*483 FILLER_12_3
*484 FILLER_12_32
*485 FILLER_12_79
*486 FILLER_12_82
*487 FILLER_12_85
*488 FILLER_13_108
*489 FILLER_13_11
*490 FILLER_13_14
*491 FILLER_13_141
*492 FILLER_13_144
*493 FILLER_13_147
*494 FILLER_13_166
*495 FILLER_13_169
*496 FILLER_13_17
*497 FILLER_13_20
*498 FILLER_13_23
*499 FILLER_13_34
*500 FILLER_13_52
*501 FILLER_13_55
*502 FILLER_13_57
*503 FILLER_13_60
*504 FILLER_13_63
*505 FILLER_14_125
*506 FILLER_14_128
*507 FILLER_14_13
*508 FILLER_14_131
*509 FILLER_14_134
*510 FILLER_14_137
*511 FILLER_14_141
*512 FILLER_14_144
*513 FILLER_14_147
*514 FILLER_14_150
*515 FILLER_14_153
*516 FILLER_14_16
*517 FILLER_14_22
*518 FILLER_14_29
*519 FILLER_14_3
*520 FILLER_14_35
*521 FILLER_14_44
*522 FILLER_14_47
*523 FILLER_14_65
*524 FILLER_14_85
*525 FILLER_15_107
*526 FILLER_15_110
*527 FILLER_15_113
*528 FILLER_15_123
*529 FILLER_15_126
*530 FILLER_15_129
*531 FILLER_15_132
*532 FILLER_15_135
*533 FILLER_15_138
*534 FILLER_15_141
*535 FILLER_15_150
*536 FILLER_15_159
*537 FILLER_15_162
*538 FILLER_15_165
*539 FILLER_15_169
*540 FILLER_15_23
*541 FILLER_15_55
*542 FILLER_15_65
*543 FILLER_15_76
*544 FILLER_16_111
*545 FILLER_16_114
*546 FILLER_16_121
*547 FILLER_16_124
*548 FILLER_16_3
*549 FILLER_16_34
*550 FILLER_16_46
*551 FILLER_16_49
*552 FILLER_16_52
*553 FILLER_16_55
*554 FILLER_16_58
*555 FILLER_16_61
*556 FILLER_16_64
*557 FILLER_16_73
*558 FILLER_16_76
*559 FILLER_16_79
*560 FILLER_16_82
*561 FILLER_16_85
*562 FILLER_16_88
*563 FILLER_16_91
*564 FILLER_17_108
*565 FILLER_17_111
*566 FILLER_17_127
*567 FILLER_17_130
*568 FILLER_17_14
*569 FILLER_17_140
*570 FILLER_17_147
*571 FILLER_17_150
*572 FILLER_17_169
*573 FILLER_17_25
*574 FILLER_17_28
*575 FILLER_17_3
*576 FILLER_17_31
*577 FILLER_17_44
*578 FILLER_17_54
*579 FILLER_17_66
*580 FILLER_17_69
*581 FILLER_17_72
*582 FILLER_18_103
*583 FILLER_18_106
*584 FILLER_18_109
*585 FILLER_18_112
*586 FILLER_18_119
*587 FILLER_18_122
*588 FILLER_18_141
*589 FILLER_18_150
*590 FILLER_18_153
*591 FILLER_18_17
*592 FILLER_18_26
*593 FILLER_18_3
*594 FILLER_18_36
*595 FILLER_18_45
*596 FILLER_18_6
*597 FILLER_18_71
*598 FILLER_18_74
*599 FILLER_18_93
*600 FILLER_19_102
*601 FILLER_19_105
*602 FILLER_19_113
*603 FILLER_19_143
*604 FILLER_19_146
*605 FILLER_19_164
*606 FILLER_19_167
*607 FILLER_19_169
*608 FILLER_19_3
*609 FILLER_19_50
*610 FILLER_19_57
*611 FILLER_19_6
*612 FILLER_19_93
*613 FILLER_19_96
*614 FILLER_19_99
*615 FILLER_1_101
*616 FILLER_1_111
*617 FILLER_1_113
*618 FILLER_1_116
*619 FILLER_1_142
*620 FILLER_1_145
*621 FILLER_1_163
*622 FILLER_1_166
*623 FILLER_1_169
*624 FILLER_1_21
*625 FILLER_1_24
*626 FILLER_1_3
*627 FILLER_1_43
*628 FILLER_1_46
*629 FILLER_1_81
*630 FILLER_20_106
*631 FILLER_20_121
*632 FILLER_20_129
*633 FILLER_20_132
*634 FILLER_20_135
*635 FILLER_20_138
*636 FILLER_20_149
*637 FILLER_20_152
*638 FILLER_20_19
*639 FILLER_20_22
*640 FILLER_20_25
*641 FILLER_20_29
*642 FILLER_20_32
*643 FILLER_20_35
*644 FILLER_20_38
*645 FILLER_20_60
*646 FILLER_20_63
*647 FILLER_20_66
*648 FILLER_20_69
*649 FILLER_20_72
*650 FILLER_20_82
*651 FILLER_20_90
*652 FILLER_20_93
*653 FILLER_20_96
*654 FILLER_21_105
*655 FILLER_21_113
*656 FILLER_21_120
*657 FILLER_21_129
*658 FILLER_21_13
*659 FILLER_21_132
*660 FILLER_21_135
*661 FILLER_21_138
*662 FILLER_21_141
*663 FILLER_21_144
*664 FILLER_21_163
*665 FILLER_21_166
*666 FILLER_21_169
*667 FILLER_21_3
*668 FILLER_21_36
*669 FILLER_21_39
*670 FILLER_21_51
*671 FILLER_21_54
*672 FILLER_21_74
*673 FILLER_21_84
*674 FILLER_21_87
*675 FILLER_22_111
*676 FILLER_22_130
*677 FILLER_22_149
*678 FILLER_22_152
*679 FILLER_22_34
*680 FILLER_22_53
*681 FILLER_22_56
*682 FILLER_22_66
*683 FILLER_22_85
*684 FILLER_23_101
*685 FILLER_23_104
*686 FILLER_23_107
*687 FILLER_23_110
*688 FILLER_23_113
*689 FILLER_23_144
*690 FILLER_23_169
*691 FILLER_23_41
*692 FILLER_23_44
*693 FILLER_23_53
*694 FILLER_23_63
*695 FILLER_23_66
*696 FILLER_23_75
*697 FILLER_23_98
*698 FILLER_24_111
*699 FILLER_24_114
*700 FILLER_24_122
*701 FILLER_24_125
*702 FILLER_24_128
*703 FILLER_24_131
*704 FILLER_24_141
*705 FILLER_24_144
*706 FILLER_24_162
*707 FILLER_24_19
*708 FILLER_24_26
*709 FILLER_24_34
*710 FILLER_24_73
*711 FILLER_25_108
*712 FILLER_25_111
*713 FILLER_25_113
*714 FILLER_25_116
*715 FILLER_25_12
*716 FILLER_25_136
*717 FILLER_25_163
*718 FILLER_25_166
*719 FILLER_25_169
*720 FILLER_25_49
*721 FILLER_25_57
*722 FILLER_26_141
*723 FILLER_26_152
*724 FILLER_26_46
*725 FILLER_26_66
*726 FILLER_26_90
*727 FILLER_26_93
*728 FILLER_26_96
*729 FILLER_26_99
*730 FILLER_27_111
*731 FILLER_27_121
*732 FILLER_27_124
*733 FILLER_27_166
*734 FILLER_27_169
*735 FILLER_27_50
*736 FILLER_27_74
*737 FILLER_27_93
*738 FILLER_27_96
*739 FILLER_28_103
*740 FILLER_28_137
*741 FILLER_28_165
*742 FILLER_28_169
*743 FILLER_28_24
*744 FILLER_28_27
*745 FILLER_28_29
*746 FILLER_28_3
*747 FILLER_28_57
*748 FILLER_28_6
*749 FILLER_28_85
*750 FILLER_2_100
*751 FILLER_2_119
*752 FILLER_2_122
*753 FILLER_2_125
*754 FILLER_2_128
*755 FILLER_2_131
*756 FILLER_2_14
*757 FILLER_2_141
*758 FILLER_2_151
*759 FILLER_2_154
*760 FILLER_2_157
*761 FILLER_2_160
*762 FILLER_2_163
*763 FILLER_2_166
*764 FILLER_2_169
*765 FILLER_2_23
*766 FILLER_2_26
*767 FILLER_2_3
*768 FILLER_2_35
*769 FILLER_2_45
*770 FILLER_2_6
*771 FILLER_2_63
*772 FILLER_2_66
*773 FILLER_2_85
*774 FILLER_2_88
*775 FILLER_2_91
*776 FILLER_3_101
*777 FILLER_3_104
*778 FILLER_3_12
*779 FILLER_3_121
*780 FILLER_3_124
*781 FILLER_3_132
*782 FILLER_3_135
*783 FILLER_3_15
*784 FILLER_3_151
*785 FILLER_3_169
*786 FILLER_3_18
*787 FILLER_3_3
*788 FILLER_3_33
*789 FILLER_3_36
*790 FILLER_3_39
*791 FILLER_3_57
*792 FILLER_3_6
*793 FILLER_3_66
*794 FILLER_3_75
*795 FILLER_3_78
*796 FILLER_3_87
*797 FILLER_3_9
*798 FILLER_3_90
*799 FILLER_3_93
*800 FILLER_4_104
*801 FILLER_4_122
*802 FILLER_4_139
*803 FILLER_4_149
*804 FILLER_4_152
*805 FILLER_4_26
*806 FILLER_4_3
*807 FILLER_4_37
*808 FILLER_4_40
*809 FILLER_4_43
*810 FILLER_4_46
*811 FILLER_4_6
*812 FILLER_4_79
*813 FILLER_4_82
*814 FILLER_4_85
*815 FILLER_4_88
*816 FILLER_5_108
*817 FILLER_5_111
*818 FILLER_5_133
*819 FILLER_5_152
*820 FILLER_5_155
*821 FILLER_5_163
*822 FILLER_5_166
*823 FILLER_5_169
*824 FILLER_5_22
*825 FILLER_5_3
*826 FILLER_5_42
*827 FILLER_5_45
*828 FILLER_5_74
*829 FILLER_5_77
*830 FILLER_5_80
*831 FILLER_6_100
*832 FILLER_6_107
*833 FILLER_6_110
*834 FILLER_6_119
*835 FILLER_6_128
*836 FILLER_6_131
*837 FILLER_6_134
*838 FILLER_6_137
*839 FILLER_6_14
*840 FILLER_6_141
*841 FILLER_6_144
*842 FILLER_6_150
*843 FILLER_6_153
*844 FILLER_6_156
*845 FILLER_6_159
*846 FILLER_6_162
*847 FILLER_6_165
*848 FILLER_6_168
*849 FILLER_6_17
*850 FILLER_6_20
*851 FILLER_6_23
*852 FILLER_6_26
*853 FILLER_6_3
*854 FILLER_6_36
*855 FILLER_6_39
*856 FILLER_6_42
*857 FILLER_6_6
*858 FILLER_6_69
*859 FILLER_6_72
*860 FILLER_6_80
*861 FILLER_6_83
*862 FILLER_6_97
*863 FILLER_7_10
*864 FILLER_7_109
*865 FILLER_7_129
*866 FILLER_7_132
*867 FILLER_7_141
*868 FILLER_7_144
*869 FILLER_7_147
*870 FILLER_7_150
*871 FILLER_7_160
*872 FILLER_7_163
*873 FILLER_7_166
*874 FILLER_7_169
*875 FILLER_7_17
*876 FILLER_7_20
*877 FILLER_7_39
*878 FILLER_8_107
*879 FILLER_8_110
*880 FILLER_8_113
*881 FILLER_8_124
*882 FILLER_8_127
*883 FILLER_8_139
*884 FILLER_8_141
*885 FILLER_8_148
*886 FILLER_8_21
*887 FILLER_8_24
*888 FILLER_8_27
*889 FILLER_8_3
*890 FILLER_8_37
*891 FILLER_8_40
*892 FILLER_8_43
*893 FILLER_8_70
*894 FILLER_8_83
*895 FILLER_9_102
*896 FILLER_9_138
*897 FILLER_9_149
*898 FILLER_9_156
*899 FILLER_9_163
*900 FILLER_9_166
*901 FILLER_9_169
*902 FILLER_9_21
*903 FILLER_9_3
*904 FILLER_9_32
*905 FILLER_9_42
*906 FILLER_9_45
*907 FILLER_9_55
*908 FILLER_9_68
*909 FILLER_9_71
*910 FILLER_9_74
*911 FILLER_9_77
*912 FILLER_9_84
*913 FILLER_9_93
*914 FILLER_9_96
*915 FILLER_9_99
*916 PHY_EDGE_ROW_0_Left_29
*917 PHY_EDGE_ROW_0_Right_0
*918 PHY_EDGE_ROW_10_Left_39
*919 PHY_EDGE_ROW_10_Right_10
*920 PHY_EDGE_ROW_11_Left_40
*921 PHY_EDGE_ROW_11_Right_11
*922 PHY_EDGE_ROW_12_Left_41
*923 PHY_EDGE_ROW_12_Right_12
*924 PHY_EDGE_ROW_13_Left_42
*925 PHY_EDGE_ROW_13_Right_13
*926 PHY_EDGE_ROW_14_Left_43
*927 PHY_EDGE_ROW_14_Right_14
*928 PHY_EDGE_ROW_15_Left_44
*929 PHY_EDGE_ROW_15_Right_15
*930 PHY_EDGE_ROW_16_Left_45
*931 PHY_EDGE_ROW_16_Right_16
*932 PHY_EDGE_ROW_17_Left_46
*933 PHY_EDGE_ROW_17_Right_17
*934 PHY_EDGE_ROW_18_Left_47
*935 PHY_EDGE_ROW_18_Right_18
*936 PHY_EDGE_ROW_19_Left_48
*937 PHY_EDGE_ROW_19_Right_19
*938 PHY_EDGE_ROW_1_Left_30
*939 PHY_EDGE_ROW_1_Right_1
*940 PHY_EDGE_ROW_20_Left_49
*941 PHY_EDGE_ROW_20_Right_20
*942 PHY_EDGE_ROW_21_Left_50
*943 PHY_EDGE_ROW_21_Right_21
*944 PHY_EDGE_ROW_22_Left_51
*945 PHY_EDGE_ROW_22_Right_22
*946 PHY_EDGE_ROW_23_Left_52
*947 PHY_EDGE_ROW_23_Right_23
*948 PHY_EDGE_ROW_24_Left_53
*949 PHY_EDGE_ROW_24_Right_24
*950 PHY_EDGE_ROW_25_Left_54
*951 PHY_EDGE_ROW_25_Right_25
*952 PHY_EDGE_ROW_26_Left_55
*953 PHY_EDGE_ROW_26_Right_26
*954 PHY_EDGE_ROW_27_Left_56
*955 PHY_EDGE_ROW_27_Right_27
*956 PHY_EDGE_ROW_28_Left_57
*957 PHY_EDGE_ROW_28_Right_28
*958 PHY_EDGE_ROW_2_Left_31
*959 PHY_EDGE_ROW_2_Right_2
*960 PHY_EDGE_ROW_3_Left_32
*961 PHY_EDGE_ROW_3_Right_3
*962 PHY_EDGE_ROW_4_Left_33
*963 PHY_EDGE_ROW_4_Right_4
*964 PHY_EDGE_ROW_5_Left_34
*965 PHY_EDGE_ROW_5_Right_5
*966 PHY_EDGE_ROW_6_Left_35
*967 PHY_EDGE_ROW_6_Right_6
*968 PHY_EDGE_ROW_7_Left_36
*969 PHY_EDGE_ROW_7_Right_7
*970 PHY_EDGE_ROW_8_Left_37
*971 PHY_EDGE_ROW_8_Right_8
*972 PHY_EDGE_ROW_9_Left_38
*973 PHY_EDGE_ROW_9_Right_9
*974 TAP_TAPCELL_ROW_0_58
*975 TAP_TAPCELL_ROW_0_59
*976 TAP_TAPCELL_ROW_0_60
*977 TAP_TAPCELL_ROW_0_61
*978 TAP_TAPCELL_ROW_0_62
*979 TAP_TAPCELL_ROW_0_63
*980 TAP_TAPCELL_ROW_10_91
*981 TAP_TAPCELL_ROW_10_92
*982 TAP_TAPCELL_ROW_10_93
*983 TAP_TAPCELL_ROW_11_94
*984 TAP_TAPCELL_ROW_11_95
*985 TAP_TAPCELL_ROW_11_96
*986 TAP_TAPCELL_ROW_12_97
*987 TAP_TAPCELL_ROW_12_98
*988 TAP_TAPCELL_ROW_12_99
*989 TAP_TAPCELL_ROW_13_100
*990 TAP_TAPCELL_ROW_13_101
*991 TAP_TAPCELL_ROW_13_102
*992 TAP_TAPCELL_ROW_14_103
*993 TAP_TAPCELL_ROW_14_104
*994 TAP_TAPCELL_ROW_14_105
*995 TAP_TAPCELL_ROW_15_106
*996 TAP_TAPCELL_ROW_15_107
*997 TAP_TAPCELL_ROW_15_108
*998 TAP_TAPCELL_ROW_16_109
*999 TAP_TAPCELL_ROW_16_110
*1000 TAP_TAPCELL_ROW_16_111
*1001 TAP_TAPCELL_ROW_17_112
*1002 TAP_TAPCELL_ROW_17_113
*1003 TAP_TAPCELL_ROW_17_114
*1004 TAP_TAPCELL_ROW_18_115
*1005 TAP_TAPCELL_ROW_18_116
*1006 TAP_TAPCELL_ROW_18_117
*1007 TAP_TAPCELL_ROW_19_118
*1008 TAP_TAPCELL_ROW_19_119
*1009 TAP_TAPCELL_ROW_19_120
*1010 TAP_TAPCELL_ROW_1_64
*1011 TAP_TAPCELL_ROW_1_65
*1012 TAP_TAPCELL_ROW_1_66
*1013 TAP_TAPCELL_ROW_20_121
*1014 TAP_TAPCELL_ROW_20_122
*1015 TAP_TAPCELL_ROW_20_123
*1016 TAP_TAPCELL_ROW_21_124
*1017 TAP_TAPCELL_ROW_21_125
*1018 TAP_TAPCELL_ROW_21_126
*1019 TAP_TAPCELL_ROW_22_127
*1020 TAP_TAPCELL_ROW_22_128
*1021 TAP_TAPCELL_ROW_22_129
*1022 TAP_TAPCELL_ROW_23_130
*1023 TAP_TAPCELL_ROW_23_131
*1024 TAP_TAPCELL_ROW_23_132
*1025 TAP_TAPCELL_ROW_24_133
*1026 TAP_TAPCELL_ROW_24_134
*1027 TAP_TAPCELL_ROW_24_135
*1028 TAP_TAPCELL_ROW_25_136
*1029 TAP_TAPCELL_ROW_25_137
*1030 TAP_TAPCELL_ROW_25_138
*1031 TAP_TAPCELL_ROW_26_139
*1032 TAP_TAPCELL_ROW_26_140
*1033 TAP_TAPCELL_ROW_26_141
*1034 TAP_TAPCELL_ROW_27_142
*1035 TAP_TAPCELL_ROW_27_143
*1036 TAP_TAPCELL_ROW_27_144
*1037 TAP_TAPCELL_ROW_28_145
*1038 TAP_TAPCELL_ROW_28_146
*1039 TAP_TAPCELL_ROW_28_147
*1040 TAP_TAPCELL_ROW_28_148
*1041 TAP_TAPCELL_ROW_28_149
*1042 TAP_TAPCELL_ROW_28_150
*1043 TAP_TAPCELL_ROW_2_67
*1044 TAP_TAPCELL_ROW_2_68
*1045 TAP_TAPCELL_ROW_2_69
*1046 TAP_TAPCELL_ROW_3_70
*1047 TAP_TAPCELL_ROW_3_71
*1048 TAP_TAPCELL_ROW_3_72
*1049 TAP_TAPCELL_ROW_4_73
*1050 TAP_TAPCELL_ROW_4_74
*1051 TAP_TAPCELL_ROW_4_75
*1052 TAP_TAPCELL_ROW_5_76
*1053 TAP_TAPCELL_ROW_5_77
*1054 TAP_TAPCELL_ROW_5_78
*1055 TAP_TAPCELL_ROW_6_79
*1056 TAP_TAPCELL_ROW_6_80
*1057 TAP_TAPCELL_ROW_6_81
*1058 TAP_TAPCELL_ROW_7_82
*1059 TAP_TAPCELL_ROW_7_83
*1060 TAP_TAPCELL_ROW_7_84
*1061 TAP_TAPCELL_ROW_8_85
*1062 TAP_TAPCELL_ROW_8_86
*1063 TAP_TAPCELL_ROW_8_87
*1064 TAP_TAPCELL_ROW_9_88
*1065 TAP_TAPCELL_ROW_9_89
*1066 TAP_TAPCELL_ROW_9_90
*1067 _213_
*1068 _214_
*1069 _215_
*1070 _216_
*1071 _217_
*1072 _218_
*1073 _219_
*1074 _220_
*1075 _221_
*1076 _222_
*1077 _223_
*1078 _224_
*1079 _225_
*1080 _226_
*1081 _227_
*1082 _228_
*1083 _229_
*1084 _230_
*1085 _231_
*1086 _232_
*1087 _233_
*1088 _234_
*1089 _235_
*1090 _236_
*1091 _237_
*1092 _238_
*1093 _239_
*1094 _240_
*1095 _241_
*1096 _242_
*1097 _243_
*1098 _244_
*1099 _245_
*1100 _246_
*1101 _247_
*1102 _248_
*1103 _249_
*1104 _250_
*1105 _251_
*1106 _252_
*1107 _253_
*1108 _254_
*1109 _255_
*1110 _256_
*1111 _257_
*1112 _258_
*1113 _259_
*1114 _260_
*1115 _261_
*1116 _262_
*1117 _263_
*1118 _264_
*1119 _265_
*1120 _266_
*1121 _267_
*1122 _268_
*1123 _269_
*1124 _270_
*1125 _271_
*1126 _272_
*1127 _273_
*1128 _274_
*1129 _275_
*1130 _276_
*1131 _277_
*1132 _278_
*1133 _279_
*1134 _280_
*1135 _281_
*1136 _282_
*1137 _283_
*1138 _284_
*1139 _285_
*1140 _286_
*1141 _287_
*1142 _288_
*1143 _289_
*1144 _290_
*1145 _291_
*1146 _292_
*1147 _293_
*1148 _294_
*1149 _295_
*1150 _296_
*1151 _297_
*1152 _298_
*1153 _299_
*1154 _300_
*1155 _301_
*1156 _302_
*1157 _303_
*1158 _304_
*1159 _305_
*1160 _306_
*1161 _307_
*1162 _308_
*1163 _309_
*1164 _310_
*1165 _311_
*1166 _312_
*1167 _313_
*1168 _314_
*1169 _315_
*1170 _316_
*1171 _317_
*1172 _318_
*1173 _319_
*1174 _320_
*1175 _321_
*1176 _322_
*1177 _323_
*1178 _324_
*1179 _325_
*1180 _326_
*1181 _327_
*1182 _328_
*1183 _329_
*1184 _330_
*1185 _331_
*1186 _332_
*1187 _333_
*1188 _334_
*1189 _335_
*1190 _336_
*1191 _337_
*1192 _338_
*1193 _339_
*1194 _340_
*1195 _341_
*1196 _342_
*1197 _343_
*1198 _344_
*1199 _345_
*1200 _346_
*1201 _347_
*1202 _348_
*1203 _349_
*1204 _350_
*1205 _351_
*1206 _352_
*1207 _353_
*1208 _354_
*1209 _355_
*1210 _356_
*1211 _357_
*1212 _358_
*1213 _359_
*1214 _360_
*1215 _361_
*1216 _362_
*1217 _363_
*1218 _364_
*1219 _365_
*1220 _366_
*1221 _367_
*1222 _368_
*1223 _369_
*1224 _370_
*1225 _371_
*1226 _372_
*1227 _373_
*1228 _374_
*1229 _375_
*1230 _376_
*1231 _377_
*1232 _378_
*1233 _379_
*1234 _380_
*1235 _381_
*1236 _382_
*1237 _383_
*1238 _384_
*1239 _385_
*1240 _386_
*1241 _387_
*1242 _388_
*1243 _389_
*1244 _390_
*1245 _391_
*1246 _392_
*1247 _393_
*1248 _394_
*1249 _395_
*1250 _396_
*1251 _397_
*1252 _398_
*1253 _399_
*1254 _400_
*1255 _401_
*1256 _402_
*1257 _403_
*1258 _404_
*1259 _405_
*1260 _406_
*1261 _407_
*1262 _408_
*1263 _409_
*1264 _410_
*1265 _411_
*1266 _412_
*1267 _413_
*1268 _414_
*1269 _415_
*1270 _416_
*1271 _417_
*1272 _418_
*1273 _419_
*1274 _420_
*1275 _421_
*1276 _422_
*1277 _423_
*1278 _424_
*1279 _425_
*1280 _426_
*1281 _427_
*1282 _428_
*1283 _429_
*1284 _430_
*1285 _431_
*1286 _432_
*1287 _433_
*1288 _434_
*1289 _435_
*1290 _436_
*1291 _437_
*1292 _438_
*1293 _439_
*1294 _440_
*1295 _441_
*1296 _442_
*1297 _443_
*1298 _444_
*1299 _445_
*1300 _446_
*1301 _447_
*1302 _448_
*1303 _449_
*1304 _450_
*1305 _451_
*1306 _452_
*1307 _453_
*1308 _454_
*1309 _455_
*1310 _456_
*1311 _457_
*1312 _458_
*1313 _459_
*1314 _460_
*1315 _461_
*1316 _462_
*1317 _463_
*1318 _464_
*1319 _465_
*1320 _466_
*1321 _467_
*1322 _468_
*1323 _469_
*1324 _470_
*1325 _471_
*1326 _472_
*1327 _473_
*1328 _474_
*1329 _475_
*1330 _476_
*1331 _477_
*1332 _478_
*1333 _479_
*1334 _480_
*1335 _481_
*1336 _482_
*1337 _483_
*1338 _484_
*1339 _485_
*1340 _486_
*1341 _487_
*1342 _488_
*1343 _489_
*1344 _490_
*1345 _491_
*1346 _492_
*1347 _493_
*1348 clkbuf_0_clk
*1349 clkbuf_3_0__f_clk
*1350 clkbuf_3_1__f_clk
*1351 clkbuf_3_2__f_clk
*1352 clkbuf_3_3__f_clk
*1353 clkbuf_3_4__f_clk
*1354 clkbuf_3_5__f_clk
*1355 clkbuf_3_6__f_clk
*1356 clkbuf_3_7__f_clk
*1357 clkload0
*1358 clkload1
*1359 clkload2
*1360 clkload3
*1361 clkload4
*1362 clkload5
*1363 fanout23
*1364 fanout24
*1365 fanout25
*1366 fanout26
*1367 fanout27
*1368 fanout28
*1369 fanout29
*1370 fanout30
*1371 fanout31
*1372 fanout32
*1373 hold33
*1374 hold34
*1375 hold35
*1376 hold36
*1377 hold37
*1378 hold38
*1379 hold39
*1380 hold40
*1381 hold41
*1382 hold42
*1383 hold43
*1384 hold44
*1385 hold45
*1386 hold46
*1387 hold47
*1388 hold48
*1389 hold49
*1390 hold50
*1391 hold51
*1392 hold52
*1393 hold53
*1394 hold54
*1395 hold55
*1396 hold56
*1397 hold57
*1398 hold58
*1399 hold59
*1400 hold60
*1401 hold61
*1402 hold62
*1403 hold63
*1404 hold64
*1405 hold65
*1406 hold66
*1407 hold67
*1408 hold68
*1409 hold69
*1410 hold70
*1411 hold71
*1412 hold72
*1413 hold73
*1414 hold74
*1415 hold75
*1416 hold76
*1417 hold77
*1418 hold78
*1419 hold79
*1420 hold80
*1421 hold81
*1422 hold82
*1423 hold83
*1424 hold84
*1425 hold85
*1426 hold86
*1427 hold87
*1428 hold88
*1429 hold89
*1430 hold90
*1431 hold91
*1432 hold92
*1433 input1
*1434 input10
*1435 input11
*1436 input2
*1437 input3
*1438 input4
*1439 input5
*1440 input6
*1441 input7
*1442 input8
*1443 input9
*1444 output12
*1445 output13
*1446 output14
*1447 output15
*1448 output16
*1449 output17
*1450 output18
*1451 output19
*1452 output20
*1453 output21
*1454 output22

*PORTS
clk I
reset I
rx I
rx_data[0] O
rx_data[1] O
rx_data[2] O
rx_data[3] O
rx_data[4] O
rx_data[5] O
rx_data[6] O
rx_data[7] O
rx_valid O
tx O
tx_busy O
tx_data[0] I
tx_data[1] I
tx_data[2] I
tx_data[3] I
tx_data[4] I
tx_data[5] I
tx_data[6] I
tx_data[7] I
tx_start I

*D_NET *3 0.0114215
*CONN
*P clk I
*I *1348:A I *D sky130_fd_sc_hd__clkbuf_16
*CAP
1 clk 0.00435839
2 *1348:A 5.99558e-05
3 *3:30 0.00441835
4 *1348:A *1345:D 0.00013888
5 *1348:A *129:20 7.83037e-05
6 *3:30 tx_busy 0.000371118
7 *3:30 *1081:A0 9.02011e-05
8 *3:30 *1110:A2 4.67441e-06
9 *3:30 *1254:B1 0.000233908
10 *3:30 *1266:A 0
11 *3:30 *1267:A1 1.53418e-05
12 *3:30 *1267:B1 0.000179689
13 *3:30 *1271:A1 0.000137308
14 *3:30 *1271:B1 8.12588e-05
15 *3:30 *1297:CLK 0.000102434
16 *3:30 *1345:D 1.48797e-05
17 *3:30 *1371:A 0
18 *3:30 *1445:A 0
19 *3:30 *54:8 5.11967e-06
20 *3:30 *220:21 0
21 *3:30 *239:23 0
22 *3:30 *239:73 0.000456799
23 *3:30 *239:89 0.000623241
24 *3:30 *262:33 3.28516e-05
25 *3:30 *384:27 1.88038e-05
*RES
1 clk *3:30 47.9267 
2 *3:30 *1348:A 15.7107 
*END

*D_NET *4 0.00171627
*CONN
*P reset I
*I *1433:A I *D sky130_fd_sc_hd__clkdlybuf4s25_1
*CAP
1 reset 0.000484711
2 *1433:A 0.000484711
3 *1433:A tx 0.000384708
4 *1433:A *1260:A1 0
5 *1433:A *1335:CLK 0.000163442
6 *1433:A *1435:A 0
7 *1433:A *102:10 0
8 *1433:A *244:39 0.000198698
9 *1433:A *250:10 0
*RES
1 reset *1433:A 23.4381 
*END

*D_NET *5 0.000952693
*CONN
*P rx I
*I *1436:A I *D sky130_fd_sc_hd__clkdlybuf4s25_1
*CAP
1 rx 0.000476346
2 *1436:A 0.000476346
*RES
1 rx *1436:A 23.2009 
*END

*D_NET *6 0.00102037
*CONN
*P rx_data[0] O
*I *1444:X O *D sky130_fd_sc_hd__clkdlybuf4s25_1
*CAP
1 rx_data[0] 0.000510184
2 *1444:X 0.000510184
3 rx_data[0] *1444:A 0
*RES
1 *1444:X rx_data[0] 21.0575 
*END

*D_NET *7 0.0033461
*CONN
*P rx_data[1] O
*I *1445:X O *D sky130_fd_sc_hd__clkdlybuf4s25_1
*CAP
1 rx_data[1] 0.000982445
2 *1445:X 0.000982445
3 rx_data[1] rx_data[5] 0.000620729
4 rx_data[1] rx_data[6] 0.000521686
5 rx_data[1] *1271:A1 5.33005e-05
6 rx_data[1] *1383:A 1.92905e-05
7 rx_data[1] *1417:A 0.000154077
8 rx_data[1] *1437:A 1.21258e-05
*RES
1 *1445:X rx_data[1] 35.2018 
*END

*D_NET *8 0.0014201
*CONN
*P rx_data[2] O
*I *1446:X O *D sky130_fd_sc_hd__clkdlybuf4s25_1
*CAP
1 rx_data[2] 0.000669685
2 *1446:X 0.000669685
3 rx_data[2] *159:76 8.07313e-05
*RES
1 *1446:X rx_data[2] 26.5768 
*END

*D_NET *9 0.00328673
*CONN
*P rx_data[3] O
*I *1447:X O *D sky130_fd_sc_hd__clkdlybuf4s25_1
*CAP
1 rx_data[3] 0.00126883
2 *1447:X 0.00126883
3 rx_data[3] *1163:C1 9.71197e-05
4 rx_data[3] *269:66 0.00065196
*RES
1 *1447:X rx_data[3] 30.5587 
*END

*D_NET *10 0.00264401
*CONN
*P rx_data[4] O
*I *1448:X O *D sky130_fd_sc_hd__clkdlybuf4s25_1
*CAP
1 rx_data[4] 0.000931666
2 *1448:X 0.000931666
3 rx_data[4] *1164:A 0.000134734
4 rx_data[4] *1390:A 0.000111439
5 rx_data[4] *1448:A 0.000340723
6 rx_data[4] *158:31 0
7 rx_data[4] *255:10 0.000138548
8 rx_data[4] *295:8 5.52302e-05
*RES
1 *1448:X rx_data[4] 29.4516 
*END

*D_NET *11 0.00261644
*CONN
*P rx_data[5] O
*I *1449:X O *D sky130_fd_sc_hd__clkdlybuf4s25_1
*CAP
1 rx_data[5] 0.000879273
2 *1449:X 0.000879273
3 rx_data[5] rx_data[6] 5.71472e-05
4 rx_data[5] *1171:C1 4.70078e-05
5 rx_data[5] *1450:A 7.77751e-05
6 rx_data[5] *159:76 5.52302e-05
7 rx_data[1] rx_data[5] 0.000620729
*RES
1 *1449:X rx_data[5] 33.8625 
*END

*D_NET *12 0.00143813
*CONN
*P rx_data[6] O
*I *1450:X O *D sky130_fd_sc_hd__clkdlybuf4s25_1
*CAP
1 rx_data[6] 0.000429646
2 *1450:X 0.000429646
3 rx_data[1] rx_data[6] 0.000521686
4 rx_data[5] rx_data[6] 5.71472e-05
*RES
1 *1450:X rx_data[6] 25.7554 
*END

*D_NET *13 0.00274178
*CONN
*P rx_data[7] O
*I *1451:X O *D sky130_fd_sc_hd__clkdlybuf4s25_1
*CAP
1 rx_data[7] 0.00101372
2 *1451:X 0.00101372
3 rx_data[7] *159:89 0.00071434
*RES
1 *1451:X rx_data[7] 31.9161 
*END

*D_NET *14 0.00112434
*CONN
*P rx_valid O
*I *1452:X O *D sky130_fd_sc_hd__clkdlybuf4s25_1
*CAP
1 rx_valid 0.000453917
2 *1452:X 0.000453917
3 rx_valid *1452:A 0.000216504
*RES
1 *1452:X rx_valid 21.0575 
*END

*D_NET *15 0.00178013
*CONN
*P tx O
*I *1453:X O *D sky130_fd_sc_hd__clkdlybuf4s25_1
*CAP
1 tx 0.000626779
2 *1453:X 0.000626779
3 tx *1335:CLK 2.49459e-05
4 tx *1435:A 0
5 tx *244:39 6.16864e-05
6 tx *248:10 5.52302e-05
7 *1433:A tx 0.000384708
*RES
1 *1453:X tx 25.7391 
*END

*D_NET *16 0.00232998
*CONN
*P tx_busy O
*I *1454:X O *D sky130_fd_sc_hd__clkdlybuf4s25_1
*CAP
1 tx_busy 0.000775564
2 *1454:X 0.000775564
3 tx_busy *1277:A1 1.40415e-05
4 tx_busy *1279:A1 0
5 tx_busy *1342:CLK 0.000115485
6 tx_busy *1342:D 5.56943e-05
7 tx_busy *1443:A 0.000222517
8 tx_busy *265:54 0
9 *3:30 tx_busy 0.000371118
*RES
1 *1454:X tx_busy 27.794 
*END

*D_NET *17 0.00209255
*CONN
*P tx_data[0] I
*I *1437:A I *D sky130_fd_sc_hd__clkdlybuf4s25_1
*CAP
1 tx_data[0] 0.000502411
2 *1437:A 0.000502411
3 *1437:A *1267:A1 5.33334e-05
4 *1437:A *1271:A1 7.80815e-05
5 *1437:A *1417:A 0.000183726
6 *1437:A *1439:A 0.000760459
7 rx_data[1] *1437:A 1.21258e-05
*RES
1 tx_data[0] *1437:A 29.1304 
*END

*D_NET *18 0.00472036
*CONN
*P tx_data[1] I
*I *1438:A I *D sky130_fd_sc_hd__clkdlybuf4s25_1
*CAP
1 tx_data[1] 0.00166363
2 *1438:A 0
3 *18:15 0.00166363
4 *18:15 *1081:A0 0.000223283
5 *18:15 *1081:A1 0.000145892
6 *18:15 *1081:A2 0.000272993
7 *18:15 *1081:A3 7.09928e-05
8 *18:15 *1081:S1 2.84026e-05
9 *18:15 *1267:A1 0
10 *18:15 *1268:B 0.000333997
11 *18:15 *1272:B 0
12 *18:15 *1337:D 7.83659e-05
13 *18:15 *1412:A 8.73442e-05
14 *18:15 *1417:A 0
15 *18:15 *1434:A 5.80706e-06
16 *18:15 *1439:A 0
17 *18:15 *1440:A 0
18 *18:15 *245:55 9.21418e-06
19 *18:15 *268:79 1.17968e-05
20 *18:15 *396:10 0.00012501
*RES
1 tx_data[1] *18:15 43.4196 
2 *18:15 *1438:A 9.3 
*END

*D_NET *19 0.00292151
*CONN
*P tx_data[2] I
*I *1439:A I *D sky130_fd_sc_hd__clkdlybuf4s25_1
*CAP
1 tx_data[2] 0.000690772
2 *1439:A 0.000690772
3 *1439:A *1267:A1 0.000116749
4 *1439:A *1271:A1 0.000487738
5 *1439:A *1272:A 3.1367e-05
6 *1439:A *1440:A 0.000143651
7 *1437:A *1439:A 0.000760459
8 *18:15 *1439:A 0
*RES
1 tx_data[2] *1439:A 35.0054 
*END

*D_NET *20 0.00365792
*CONN
*P tx_data[3] I
*I *1440:A I *D sky130_fd_sc_hd__clkdlybuf4s25_1
*CAP
1 tx_data[3] 0.00105367
2 *1440:A 0.00105367
3 *1440:A *1271:A1 0.000446305
4 *1440:A *1272:A 1.02936e-05
5 *1440:A *1281:A1 0.000882188
6 *1440:A *1281:A2 1.39841e-05
7 *1440:A *102:92 5.41494e-05
8 *1439:A *1440:A 0.000143651
9 *18:15 *1440:A 0
*RES
1 tx_data[3] *1440:A 37.8804 
*END

*D_NET *21 0.00157154
*CONN
*P tx_data[4] I
*I *1441:A I *D sky130_fd_sc_hd__clkdlybuf4s25_1
*CAP
1 tx_data[4] 0.000490201
2 *1441:A 0.000490201
3 *1441:A *1275:A1 0.000183726
4 *1441:A *1435:A 5.33005e-05
5 *1441:A *1442:A 0.000354114
*RES
1 tx_data[4] *1441:A 24.0427 
*END

*D_NET *22 0.00145488
*CONN
*P tx_data[5] I
*I *1442:A I *D sky130_fd_sc_hd__clkdlybuf4s25_1
*CAP
1 tx_data[5] 0.000457429
2 *1442:A 0.000457429
3 *1442:A *1435:A 0.000185907
4 *1442:A *265:54 0
5 *1441:A *1442:A 0.000354114
*RES
1 tx_data[5] *1442:A 22.8303 
*END

*D_NET *23 0.00109623
*CONN
*P tx_data[6] I
*I *1443:A I *D sky130_fd_sc_hd__clkdlybuf4s25_1
*CAP
1 tx_data[6] 0.000430191
2 *1443:A 0.000430191
3 *1443:A *1342:CLK 1.33343e-05
4 tx_busy *1443:A 0.000222517
*RES
1 tx_data[6] *1443:A 23.2009 
*END

*D_NET *24 0.00223678
*CONN
*P tx_data[7] I
*I *1434:A I *D sky130_fd_sc_hd__clkdlybuf4s25_1
*CAP
1 tx_data[7] 0.000979004
2 *1434:A 0.000979004
3 *1434:A *1272:A 0.000149549
4 *1434:A *1272:B 7.26935e-05
5 *1434:A *1281:A1 0
6 *1434:A *1281:C1 0
7 *1434:A *396:10 5.0725e-05
8 *18:15 *1434:A 5.80706e-06
*RES
1 tx_data[7] *1434:A 38.3398 
*END

*D_NET *25 0.00202813
*CONN
*P tx_start I
*I *1435:A I *D sky130_fd_sc_hd__clkdlybuf4s25_1
*CAP
1 tx_start 0.000636454
2 *1435:A 0.000636454
3 *1435:A *1275:A1 9.40388e-05
4 *1435:A *1340:CLK 0.000202842
5 *1435:A *1340:D 5.56943e-05
6 *1435:A *102:10 0
7 *1435:A *244:39 0.000163442
8 *1435:A *265:54 0
9 tx *1435:A 0
10 *1433:A *1435:A 0
11 *1441:A *1435:A 5.33005e-05
12 *1442:A *1435:A 0.000185907
*RES
1 tx_start *1435:A 26.1702 
*END

*D_NET *26 0.000360291
*CONN
*I *1344:D I *D sky130_fd_sc_hd__dfxtp_2
*I *1112:X O *D sky130_fd_sc_hd__a31o_2
*CAP
1 *1344:D 2.16014e-05
2 *1112:X 2.16014e-05
3 *1344:D *1112:A3 0.000173823
4 *1344:D *1344:CLK 0.00013001
5 *1344:D *266:38 1.32552e-05
*RES
1 *1112:X *1344:D 20.2295 
*END

*D_NET *27 0.00124869
*CONN
*I *1345:D I *D sky130_fd_sc_hd__dfxtp_2
*I *1110:Y O *D sky130_fd_sc_hd__o31ai_2
*CAP
1 *1345:D 0.000456233
2 *1110:Y 0.000456233
3 *1345:D *1104:B 1.76204e-05
4 *1345:D *1106:B1 8.16036e-05
5 *1345:D *1110:A2 0
6 *1345:D *1367:A 0
7 *1345:D *129:20 6.7945e-05
8 *1345:D *239:23 1.52978e-05
9 *1348:A *1345:D 0.00013888
10 *3:30 *1345:D 1.48797e-05
*RES
1 *1110:Y *1345:D 35.658 
*END

*D_NET *28 0.000398927
*CONN
*I *1346:D I *D sky130_fd_sc_hd__dfxtp_2
*I *1107:Y O *D sky130_fd_sc_hd__nor2_2
*CAP
1 *1346:D 0.000199464
2 *1107:Y 0.000199464
3 *1346:D *1346:CLK 0
4 *1346:D *1413:A 0
*RES
1 *1107:Y *1346:D 31.0107 
*END

*D_NET *29 0.000598407
*CONN
*I *1347:D I *D sky130_fd_sc_hd__dfxtp_2
*I *1099:X O *D sky130_fd_sc_hd__a31o_2
*CAP
1 *1347:D 0.000208541
2 *1099:X 0.000208541
3 *1347:D *1099:A1 0
4 *1347:D *1203:C1 0.000175519
5 *1347:D *266:102 5.80706e-06
*RES
1 *1099:X *1347:D 31.658 
*END

*D_NET *30 0.00109353
*CONN
*I *1381:A I *D sky130_fd_sc_hd__dlygate4sd3_1
*I *1127:Y O *D sky130_fd_sc_hd__a21oi_2
*CAP
1 *1381:A 0.00026548
2 *1127:Y 0.00026548
3 *1381:A *1126:A2 8.10737e-06
4 *1381:A *1127:A1 0.000141935
5 *1381:A *1127:A2 5.66971e-05
6 *1381:A *1127:B1 8.74791e-05
7 *1381:A *139:16 2.11336e-05
8 *1381:A *139:22 9.64346e-05
9 *1381:A *342:21 0.00015078
*RES
1 *1127:Y *1381:A 33.7786 
*END

*D_NET *31 0.000645693
*CONN
*I *1283:D I *D sky130_fd_sc_hd__dfxtp_2
*I *1129:X O *D sky130_fd_sc_hd__and3_2
*CAP
1 *1283:D 0.000140685
2 *1129:X 0.000140685
3 *1283:D *1122:A 0.000173418
4 *1283:D *243:24 1.64343e-05
5 *1283:D *264:22 9.90367e-05
6 *1283:D *264:33 5.79522e-05
7 *1283:D *342:8 1.74816e-05
*RES
1 *1129:X *1283:D 30.9616 
*END

*D_NET *32 0.000634915
*CONN
*I *1284:D I *D sky130_fd_sc_hd__dfxtp_2
*I *1131:Y O *D sky130_fd_sc_hd__nor2_2
*CAP
1 *1284:D 0.000250675
2 *1131:Y 0.000250675
3 *1284:D *1131:B 0.000101777
4 *1284:D *264:39 3.17866e-05
*RES
1 *1131:Y *1284:D 31.9795 
*END

*D_NET *33 0.000274518
*CONN
*I *1285:D I *D sky130_fd_sc_hd__dfxtp_2
*I *1133:X O *D sky130_fd_sc_hd__and3b_2
*CAP
1 *1285:D 9.64622e-05
2 *1133:X 9.64622e-05
3 *1285:D *1133:B 8.15939e-05
*RES
1 *1133:X *1285:D 29.7116 
*END

*D_NET *34 0.000250185
*CONN
*I *1286:D I *D sky130_fd_sc_hd__dfxtp_2
*I *1135:Y O *D sky130_fd_sc_hd__a21oi_2
*CAP
1 *1286:D 0.000107239
2 *1135:Y 0.000107239
3 *1286:D *1135:A1 3.5707e-05
4 *1286:D *242:24 0
*RES
1 *1135:Y *1286:D 29.5152 
*END

*D_NET *35 0.000352513
*CONN
*I *1287:D I *D sky130_fd_sc_hd__dfxtp_2
*I *1137:Y O *D sky130_fd_sc_hd__nor2_2
*CAP
1 *1287:D 0.000121397
2 *1137:Y 0.000121397
3 *1287:D *1135:B1 0
4 *1287:D *1136:B1 8.84074e-05
5 *1287:D *1288:CLK 1.64343e-05
6 *1287:D *137:20 4.87669e-06
*RES
1 *1137:Y *1287:D 30.3188 
*END

*D_NET *36 0.000439757
*CONN
*I *1288:D I *D sky130_fd_sc_hd__dfxtp_2
*I *1139:X O *D sky130_fd_sc_hd__and3b_2
*CAP
1 *1288:D 0.0001381
2 *1139:X 0.0001381
3 *1288:D *1139:C 0.000155561
4 *1288:D *349:12 7.99677e-06
*RES
1 *1139:X *1288:D 30.2473 
*END

*D_NET *37 0.00034679
*CONN
*I *1289:D I *D sky130_fd_sc_hd__dfxtp_2
*I *1141:Y O *D sky130_fd_sc_hd__a21oi_2
*CAP
1 *1289:D 6.70148e-05
2 *1141:Y 6.70148e-05
3 *1289:D *1140:B1 5.24274e-05
4 *1289:D *1141:B1 0.000100823
5 *1289:D *348:14 5.95099e-05
*RES
1 *1141:Y *1289:D 29.5152 
*END

*D_NET *38 0.000250555
*CONN
*I *1290:D I *D sky130_fd_sc_hd__dfxtp_2
*I *1143:Y O *D sky130_fd_sc_hd__nor2_2
*CAP
1 *1290:D 8.52969e-05
2 *1143:Y 8.52969e-05
3 *1290:D *1143:B 6.35274e-05
4 *1290:D *242:98 1.64343e-05
*RES
1 *1143:Y *1290:D 29.408 
*END

*D_NET *39 0.000580571
*CONN
*I *1291:D I *D sky130_fd_sc_hd__dfxtp_2
*I *1147:X O *D sky130_fd_sc_hd__and2_2
*CAP
1 *1291:D 0.000155263
2 *1147:X 0.000155263
3 *1291:D *1147:B 8.12904e-05
4 *1291:D *346:8 0.000188756
*RES
1 *1147:X *1291:D 31.3545 
*END

*D_NET *40 0.000702316
*CONN
*I *1292:D I *D sky130_fd_sc_hd__dfxtp_2
*I *1150:X O *D sky130_fd_sc_hd__o311a_2
*CAP
1 *1292:D 0.000242147
2 *1150:X 0.000242147
3 *1292:D *1071:A 3.34295e-05
4 *1292:D *1113:A 1.64343e-05
5 *1292:D *1123:A 5.33005e-05
6 *1292:D *1150:A3 7.6644e-05
7 *1292:D *115:10 0
8 *1292:D *243:10 2.05938e-05
9 *1292:D *340:19 1.76204e-05
*RES
1 *1150:X *1292:D 32.0687 
*END

*D_NET *41 0.000658361
*CONN
*I *1293:D I *D sky130_fd_sc_hd__dfxtp_2
*I *1151:X O *D sky130_fd_sc_hd__o2111a_2
*CAP
1 *1293:D 0.000210482
2 *1151:X 0.000210482
3 *1293:D *1113:B 2.6949e-05
4 *1293:D *1293:CLK 6.75967e-05
5 *1293:D *1295:D 5.33334e-05
6 *1293:D *116:29 0
7 *1293:D *344:14 8.95186e-05
*RES
1 *1151:X *1293:D 31.35 
*END

*D_NET *42 0.00118417
*CONN
*I *1404:A I *D sky130_fd_sc_hd__dlygate4sd3_1
*I *1152:X O *D sky130_fd_sc_hd__o311a_2
*CAP
1 *1404:A 0.000295731
2 *1152:X 0.000295731
3 *1404:A *1152:A1 5.62995e-05
4 *1404:A *1152:A2 5.82933e-05
5 *1404:A *117:16 0.000167256
6 *1404:A *124:18 1.32552e-05
7 *1404:A *264:12 0.000270943
8 *1404:A *264:22 2.66563e-05
*RES
1 *1152:X *1404:A 34.2607 
*END

*D_NET *43 0.00272785
*CONN
*I *1295:D I *D sky130_fd_sc_hd__dfxtp_2
*I *1153:X O *D sky130_fd_sc_hd__and4_2
*CAP
1 *1295:D 0.000529094
2 *1153:X 0.000529094
3 *1295:D *1146:A3 0.000606612
4 *1295:D *1150:A1 6.97972e-05
5 *1295:D *1150:A2 0
6 *1295:D *1151:A1 0.000743433
7 *1295:D *1151:A2 5.52302e-05
8 *1295:D *1151:C1 4.51611e-05
9 *1295:D *1295:CLK 9.60939e-05
10 *1295:D *141:12 0
11 *1293:D *1295:D 5.33334e-05
*RES
1 *1153:X *1295:D 42.1536 
*END

*D_NET *44 0.00128426
*CONN
*I *1296:D I *D sky130_fd_sc_hd__dfxtp_2
*I *1157:X O *D sky130_fd_sc_hd__o211a_2
*CAP
1 *1296:D 0.000452046
2 *1157:X 0.000452046
3 *1296:D *1157:B1 0
4 *1296:D *1391:A 0.000129868
5 *1296:D *158:27 0.000250303
*RES
1 *1157:X *1296:D 37.3545 
*END

*D_NET *45 9.34293e-05
*CONN
*I *1379:A I *D sky130_fd_sc_hd__dlygate4sd3_1
*I *1159:X O *D sky130_fd_sc_hd__o211a_2
*CAP
1 *1379:A 1.8141e-05
2 *1159:X 1.8141e-05
3 *1379:A *1158:A 5.71472e-05
*RES
1 *1159:X *1379:A 19.1357 
*END

*D_NET *46 0.000575074
*CONN
*I *1388:A I *D sky130_fd_sc_hd__dlygate4sd3_1
*I *1161:X O *D sky130_fd_sc_hd__o211a_2
*CAP
1 *1388:A 0.000169793
2 *1161:X 0.000169793
3 *1388:A *1160:A 2.28499e-05
4 *1388:A *1161:B1 3.18676e-05
5 *1388:A *158:53 0.00012747
6 *1388:A *158:63 5.33005e-05
*RES
1 *1161:X *1388:A 22.0107 
*END

*D_NET *47 0.00322405
*CONN
*I *1390:A I *D sky130_fd_sc_hd__dlygate4sd3_1
*I *1163:X O *D sky130_fd_sc_hd__o211a_2
*CAP
1 *1390:A 0.000842914
2 *1163:X 0.000842914
3 *1390:A *1157:A2 0.000128161
4 *1390:A *1163:A1 0
5 *1390:A *1165:A1 0
6 *1390:A *1299:D 0.000439679
7 *1390:A *1300:D 6.75007e-05
8 *1390:A *1447:A 3.93893e-05
9 *1390:A *1448:A 0.000183726
10 *1390:A *159:91 0.000568323
11 rx_data[4] *1390:A 0.000111439
*RES
1 *1163:X *1390:A 46.9393 
*END

*D_NET *48 0.00109736
*CONN
*I *1300:D I *D sky130_fd_sc_hd__dfxtp_2
*I *1165:X O *D sky130_fd_sc_hd__o211a_2
*CAP
1 *1300:D 0.000287453
2 *1165:X 0.000287453
3 *1300:D *1157:A2 0.000158502
4 *1300:D *1165:A1 0.000114121
5 *1300:D *1201:A1 0.000182329
6 *1390:A *1300:D 6.75007e-05
*RES
1 *1165:X *1300:D 35.5643 
*END

*D_NET *49 0.000776976
*CONN
*I *1377:A I *D sky130_fd_sc_hd__dlygate4sd3_1
*I *1167:X O *D sky130_fd_sc_hd__o211a_2
*CAP
1 *1377:A 0.000311337
2 *1167:X 0.000311337
3 *1377:A *1301:D 0
4 *1377:A *1367:A 0
5 *1377:A *244:85 0
6 *1377:A *272:12 9.80029e-05
7 *1377:A *277:6 5.62995e-05
*RES
1 *1167:X *1377:A 33.7429 
*END

*D_NET *50 0.000587484
*CONN
*I *1383:A I *D sky130_fd_sc_hd__dlygate4sd3_1
*I *1169:X O *D sky130_fd_sc_hd__o211a_2
*CAP
1 *1383:A 0.000284097
2 *1169:X 0.000284097
3 *1383:A *1270:A 0
4 *1383:A *1302:D 0
5 *1383:A *1445:A 0
6 rx_data[1] *1383:A 1.92905e-05
*RES
1 *1169:X *1383:A 32.5107 
*END

*D_NET *51 0.00166612
*CONN
*I *1386:A I *D sky130_fd_sc_hd__dlygate4sd3_1
*I *1171:X O *D sky130_fd_sc_hd__o211a_2
*CAP
1 *1386:A 0.000174029
2 *1171:X 0.000174029
3 *1386:A *1451:A 0.000449546
4 *1386:A *159:89 0.000845778
5 *1386:A *287:6 2.27416e-05
*RES
1 *1171:X *1386:A 26.5286 
*END

*D_NET *52 0.000602095
*CONN
*I *1304:D I *D sky130_fd_sc_hd__dfxtp_2
*I *1172:X O *D sky130_fd_sc_hd__or2_2
*CAP
1 *1304:D 0.000209355
2 *1172:X 0.000209355
3 *1304:D *1304:CLK 0.000173133
4 *1304:D *1326:CLK 1.02504e-05
*RES
1 *1172:X *1304:D 31.283 
*END

*D_NET *53 0.000675488
*CONN
*I *1305:D I *D sky130_fd_sc_hd__dfxtp_2
*I *1173:X O *D sky130_fd_sc_hd__or2_2
*CAP
1 *1305:D 0.000135936
2 *1173:X 0.000135936
3 *1305:D *1107:A 0.000100831
4 *1305:D *1108:A 8.42801e-05
5 *1305:D *1173:A 5.33005e-05
6 *1305:D *1305:CLK 6.05161e-06
7 *1305:D *241:8 0.000125724
8 *1305:D *241:73 1.02504e-05
9 *1305:D *273:105 2.31791e-05
*RES
1 *1173:X *1305:D 30.9973 
*END

*D_NET *54 0.00110355
*CONN
*I *1110:A3 I *D sky130_fd_sc_hd__o31ai_2
*I *1306:D I *D sky130_fd_sc_hd__dfxtp_2
*I *1109:X O *D sky130_fd_sc_hd__or2_2
*CAP
1 *1110:A3 0
2 *1306:D 0.000135832
3 *1109:X 7.46392e-05
4 *54:8 0.000210471
5 *1306:D *1110:A2 0.00025263
6 *1306:D *1345:CLK 0.00025263
7 *54:8 *1110:A2 3.34295e-05
8 *54:8 *1345:CLK 0.000138804
9 *54:8 *239:23 0
10 *3:30 *54:8 5.11967e-06
*RES
1 *1109:X *54:8 15.7464 
2 *54:8 *1306:D 17.9473 
3 *54:8 *1110:A3 13.8 
*END

*D_NET *55 0.00062721
*CONN
*I *1307:D I *D sky130_fd_sc_hd__dfxtp_2
*I *1178:X O *D sky130_fd_sc_hd__o211a_2
*CAP
1 *1307:D 0.000187375
2 *1178:X 0.000187375
3 *1307:D *185:12 5.09882e-05
4 *1307:D *185:38 0
5 *1307:D *239:153 9.10431e-06
6 *1307:D *239:161 2.89016e-05
7 *1307:D *239:170 1.21258e-05
8 *1307:D *246:46 0.00015134
*RES
1 *1178:X *1307:D 31.6536 
*END

*D_NET *56 0.000350307
*CONN
*I *1308:D I *D sky130_fd_sc_hd__dfxtp_2
*I *1183:X O *D sky130_fd_sc_hd__and2_2
*CAP
1 *1308:D 0.000125224
2 *1183:X 0.000125224
3 *1308:D *1369:A 0
4 *1308:D *94:8 6.78055e-06
5 *1308:D *269:25 9.30783e-05
*RES
1 *1183:X *1308:D 29.6402 
*END

*D_NET *57 0.000208452
*CONN
*I *1309:D I *D sky130_fd_sc_hd__dfxtp_2
*I *1186:X O *D sky130_fd_sc_hd__and3_2
*CAP
1 *1309:D 7.58713e-05
2 *1186:X 7.58713e-05
3 *1309:D *1186:C 5.33882e-05
4 *1309:D *355:8 3.32132e-06
*RES
1 *1186:X *1309:D 29.1045 
*END

*D_NET *58 0.000496582
*CONN
*I *1310:D I *D sky130_fd_sc_hd__dfxtp_2
*I *1191:X O *D sky130_fd_sc_hd__o211a_2
*CAP
1 *1310:D 0.000131702
2 *1191:X 0.000131702
3 *1310:D *1157:C1 0
4 *1310:D *119:50 0.000177948
5 *1310:D *246:12 5.52302e-05
*RES
1 *1191:X *1310:D 30.5509 
*END

*D_NET *59 0.000624814
*CONN
*I *1311:D I *D sky130_fd_sc_hd__dfxtp_2
*I *1193:X O *D sky130_fd_sc_hd__o311a_2
*CAP
1 *1311:D 0.000233221
2 *1193:X 0.000233221
3 *1311:D *1193:A1 5.33978e-05
4 *1311:D *1449:A 0.000104974
*RES
1 *1193:X *1311:D 31.5688 
*END

*D_NET *60 0.000420148
*CONN
*I *1312:D I *D sky130_fd_sc_hd__dfxtp_2
*I *1195:X O *D sky130_fd_sc_hd__o311a_2
*CAP
1 *1312:D 6.50723e-05
2 *1195:X 6.50723e-05
3 *1312:D *1168:B 9.4736e-05
4 *1312:D *1449:A 0.000175512
5 *1312:D *159:59 1.64343e-05
6 *1312:D *185:66 3.32132e-06
*RES
1 *1195:X *1312:D 30.0152 
*END

*D_NET *61 0.00137264
*CONN
*I *1313:D I *D sky130_fd_sc_hd__dfxtp_2
*I *1197:X O *D sky130_fd_sc_hd__o311a_2
*CAP
1 *1313:D 0.000411206
2 *1197:X 0.000411206
3 *1313:D *1163:A1 0
4 *1313:D *1170:A 0
5 *1313:D *1196:A1 7.79781e-06
6 *1313:D *1196:A2 0.000123295
7 *1313:D *1197:A1 5.62995e-05
8 *1313:D *1197:B1 9.91086e-05
9 *1313:D *1299:CLK 0.000201127
10 *1313:D *269:57 6.25963e-05
*RES
1 *1197:X *1313:D 35.4214 
*END

*D_NET *62 0.000485102
*CONN
*I *1314:D I *D sky130_fd_sc_hd__dfxtp_2
*I *1201:X O *D sky130_fd_sc_hd__o211a_2
*CAP
1 *1314:D 0.000131941
2 *1201:X 0.000131941
3 *1314:D *1201:A1 5.71472e-05
4 *1314:D *1300:CLK 5.52238e-05
5 *1314:D *291:12 0.000108848
*RES
1 *1201:X *1314:D 30.8545 
*END

*D_NET *63 0.000258985
*CONN
*I *1315:D I *D sky130_fd_sc_hd__dfxtp_2
*I *1203:X O *D sky130_fd_sc_hd__o311a_2
*CAP
1 *1315:D 8.52093e-05
2 *1203:X 8.52093e-05
3 *1315:D *1315:CLK 5.71472e-05
4 *1315:D *159:10 3.14193e-05
*RES
1 *1203:X *1315:D 20.2786 
*END

*D_NET *64 0.000789112
*CONN
*I *1316:D I *D sky130_fd_sc_hd__dfxtp_2
*I *1205:X O *D sky130_fd_sc_hd__o311a_2
*CAP
1 *1316:D 0.00026978
2 *1205:X 0.00026978
3 *1316:D *1169:A2 0.000230475
4 *1316:D *1204:A2 0
5 *1316:D *1204:B1_N 9.25014e-06
6 *1316:D *1205:B1 0
7 *1316:D *1270:A 9.82585e-06
8 *1316:D *268:46 0
*RES
1 *1205:X *1316:D 32.9973 
*END

*D_NET *65 0.00050443
*CONN
*I *1317:D I *D sky130_fd_sc_hd__dfxtp_2
*I *1207:X O *D sky130_fd_sc_hd__o311a_2
*CAP
1 *1317:D 0.000150591
2 *1207:X 0.000150591
3 *1317:D *1171:B1 2.51343e-06
4 *1317:D *1206:B1_N 5.01117e-05
5 *1317:D *158:53 0.000150624
6 *1317:D *247:19 0
*RES
1 *1207:X *1317:D 30.7473 
*END

*D_NET *66 0.000593103
*CONN
*I *1318:D I *D sky130_fd_sc_hd__dfxtp_2
*I *1215:X O *D sky130_fd_sc_hd__and2b_2
*CAP
1 *1318:D 0.000247889
2 *1215:X 0.000247889
3 *1318:D *1221:A 9.73242e-05
*RES
1 *1215:X *1318:D 22.7116 
*END

*D_NET *67 0.00109921
*CONN
*I *1402:A I *D sky130_fd_sc_hd__dlygate4sd3_1
*I *1217:Y O *D sky130_fd_sc_hd__a21boi_2
*CAP
1 *1402:A 0.000256535
2 *1217:Y 0.000256535
3 *1402:A *1208:A_N 0.000360366
4 *1402:A *1212:C 9.58689e-05
5 *1402:A *1217:A1 0.0001299
*RES
1 *1217:Y *1402:A 33.5643 
*END

*D_NET *68 0.00105922
*CONN
*I *1320:D I *D sky130_fd_sc_hd__dfxtp_2
*I *1220:X O *D sky130_fd_sc_hd__and3_2
*CAP
1 *1320:D 0.000226739
2 *1220:X 0.000226739
3 *1320:D *1215:A_N 6.65302e-05
4 *1320:D *1220:C 0.000292708
5 *1320:D *1318:CLK 0.00015234
6 *1320:D *1320:CLK 9.41642e-05
*RES
1 *1220:X *1320:D 33.408 
*END

*D_NET *69 0.000640235
*CONN
*I *1321:D I *D sky130_fd_sc_hd__dfxtp_2
*I *1223:X O *D sky130_fd_sc_hd__and3b_2
*CAP
1 *1321:D 0.000165061
2 *1223:X 0.000165061
3 *1321:D *1215:B 0
4 *1321:D *1221:C 1.17968e-05
5 *1321:D *1221:D 8.00806e-05
6 *1321:D *1223:B 0.000158726
7 *1321:D *240:77 5.95099e-05
8 *1321:D *371:37 0
*RES
1 *1223:X *1321:D 31.9438 
*END

*D_NET *70 0.000390032
*CONN
*I *1322:D I *D sky130_fd_sc_hd__dfxtp_2
*I *1226:X O *D sky130_fd_sc_hd__and3_2
*CAP
1 *1322:D 0.000147155
2 *1226:X 0.000147155
3 *1322:D *1226:B 7.92879e-05
4 *1322:D *1322:CLK 1.64343e-05
*RES
1 *1226:X *1322:D 30.2473 
*END

*D_NET *71 0.000954039
*CONN
*I *1323:D I *D sky130_fd_sc_hd__dfxtp_2
*I *1229:X O *D sky130_fd_sc_hd__and3b_2
*CAP
1 *1323:D 0.000193452
2 *1229:X 0.000193452
3 *1323:D *1228:A1 7.17136e-05
4 *1323:D *1229:A_N 6.04069e-05
5 *1323:D *1229:B 0.00018372
6 *1323:D *263:33 6.04069e-05
7 *1323:D *263:61 0.000142856
8 *1323:D *378:52 4.8032e-05
*RES
1 *1229:X *1323:D 33.2964 
*END

*D_NET *72 0.000772508
*CONN
*I *1324:D I *D sky130_fd_sc_hd__dfxtp_2
*I *1232:X O *D sky130_fd_sc_hd__and3b_2
*CAP
1 *1324:D 0.000223669
2 *1232:X 0.000223669
3 *1324:D *1217:B1_N 0.000161579
4 *1324:D *1230:A 0
5 *1324:D *1231:D 6.75007e-05
6 *1324:D *1232:C 3.18676e-05
7 *1324:D *263:29 6.42242e-05
8 *1324:D *380:10 0
*RES
1 *1232:X *1324:D 33.283 
*END

*D_NET *73 0.000285966
*CONN
*I *1325:D I *D sky130_fd_sc_hd__dfxtp_2
*I *1235:X O *D sky130_fd_sc_hd__and3_2
*CAP
1 *1325:D 7.87028e-05
2 *1235:X 7.87028e-05
3 *1325:D *1235:B 7.48554e-05
4 *1325:D *1325:CLK 4.87669e-06
5 *1325:D *263:12 4.88284e-05
*RES
1 *1235:X *1325:D 29.7116 
*END

*D_NET *74 0.000435969
*CONN
*I *1326:D I *D sky130_fd_sc_hd__dfxtp_2
*I *1238:X O *D sky130_fd_sc_hd__and3b_2
*CAP
1 *1326:D 0.000106853
2 *1238:X 0.000106853
3 *1326:D *1238:C 6.75007e-05
4 *1326:D *1326:CLK 0.000154762
5 *1326:D *197:8 0
*RES
1 *1238:X *1326:D 30.3545 
*END

*D_NET *75 0.000825498
*CONN
*I *1327:D I *D sky130_fd_sc_hd__dfxtp_2
*I *1241:X O *D sky130_fd_sc_hd__o21ba_2
*CAP
1 *1327:D 0.000364134
2 *1241:X 0.000364134
3 *1327:D *1211:B 8.67814e-06
4 *1327:D *1239:A 2.92997e-05
5 *1327:D *1241:B1_N 0
6 *1327:D *381:65 5.92518e-05
7 *1327:D *382:10 0
*RES
1 *1241:X *1327:D 33.4616 
*END

*D_NET *76 0.000907269
*CONN
*I *1328:D I *D sky130_fd_sc_hd__dfxtp_2
*I *1243:X O *D sky130_fd_sc_hd__o21ba_2
*CAP
1 *1328:D 0.000269333
2 *1243:X 0.000269333
3 *1328:D *1241:B1_N 0
4 *1328:D *1243:B1_N 0
5 *1328:D *196:18 9.59212e-05
6 *1328:D *241:20 0.000272682
7 *1328:D *310:12 0
*RES
1 *1243:X *1328:D 33.6937 
*END

*D_NET *77 0.000285011
*CONN
*I *1329:D I *D sky130_fd_sc_hd__dfxtp_2
*I *1246:X O *D sky130_fd_sc_hd__and3_2
*CAP
1 *1329:D 9.54815e-05
2 *1246:X 9.54815e-05
3 *1329:D *1246:B 7.76132e-05
4 *1329:D *241:18 1.64343e-05
*RES
1 *1246:X *1329:D 29.7116 
*END

*D_NET *78 0.000381325
*CONN
*I *1414:A I *D sky130_fd_sc_hd__dlygate4sd3_1
*I *1248:X O *D sky130_fd_sc_hd__o211a_2
*CAP
1 *1414:A 0.00012771
2 *1248:X 0.00012771
3 *1414:A *1248:A1 0.000125905
*RES
1 *1248:X *1414:A 21.1893 
*END

*D_NET *79 0.000701483
*CONN
*I *1331:D I *D sky130_fd_sc_hd__dfxtp_2
*I *1252:Y O *D sky130_fd_sc_hd__a211oi_2
*CAP
1 *1331:D 0.000304093
2 *1252:Y 0.000304093
3 *1331:D *1251:B1_N 7.43578e-06
4 *1331:D *1252:A1 6.05161e-06
5 *1331:D *1252:B1 1.32552e-05
6 *1331:D *239:33 5.01193e-05
7 *1331:D *241:75 1.64343e-05
*RES
1 *1252:Y *1331:D 32.4973 
*END

*D_NET *80 0.000355841
*CONN
*I *1399:A I *D sky130_fd_sc_hd__dlygate4sd3_1
*I *1255:Y O *D sky130_fd_sc_hd__nor2_2
*CAP
1 *1399:A 0.000107454
2 *1255:Y 0.000107454
3 *1399:A *244:77 0.000140933
*RES
1 *1255:Y *1399:A 20.7786 
*END

*D_NET *81 0.000479299
*CONN
*I *1333:D I *D sky130_fd_sc_hd__dfxtp_2
*I *1259:X O *D sky130_fd_sc_hd__and3_2
*CAP
1 *1333:D 0.000130905
2 *1259:X 0.000130905
3 *1333:D *244:16 0.000117228
4 *1333:D *244:24 0.000100261
*RES
1 *1259:X *1333:D 21.6714 
*END

*D_NET *82 0.000800177
*CONN
*I *1334:D I *D sky130_fd_sc_hd__dfxtp_2
*I *1262:X O *D sky130_fd_sc_hd__o21ba_2
*CAP
1 *1334:D 0.000133473
2 *1262:X 0.000133473
3 *1334:D *1260:A1 0.000206298
4 *1334:D *1262:B1_N 5.83233e-05
5 *1334:D *244:24 8.65694e-05
6 *1334:D *250:10 5.80706e-06
7 *1334:D *265:41 0.000176234
*RES
1 *1262:X *1334:D 31.9214 
*END

*D_NET *83 0.000467716
*CONN
*I *1335:D I *D sky130_fd_sc_hd__dfxtp_2
*I *1265:Y O *D sky130_fd_sc_hd__a21oi_2
*CAP
1 *1335:D 0.000131931
2 *1265:Y 0.000131931
3 *1335:D *1265:A1 0.000182285
4 *1335:D *1265:B1 1.74352e-05
5 *1335:D *1335:CLK 4.1331e-06
*RES
1 *1265:Y *1335:D 30.5509 
*END

*D_NET *84 0.000502225
*CONN
*I *1336:D I *D sky130_fd_sc_hd__dfxtp_2
*I *1267:X O *D sky130_fd_sc_hd__o311a_2
*CAP
1 *1336:D 0.000197956
2 *1267:X 0.000197956
3 *1336:D *1079:A0 5.52302e-05
4 *1336:D *1082:A0 0
5 *1336:D *239:89 5.10822e-05
*RES
1 *1267:X *1336:D 30.6938 
*END

*D_NET *85 0.000885522
*CONN
*I *1337:D I *D sky130_fd_sc_hd__dfxtp_2
*I *1269:X O *D sky130_fd_sc_hd__o311a_2
*CAP
1 *1337:D 0.000109658
2 *1269:X 0.000109658
3 *1337:D *1268:B 1.81709e-05
4 *1337:D *219:67 0.000226665
5 *1337:D *268:79 0.000343004
6 *18:15 *1337:D 7.83659e-05
*RES
1 *1269:X *1337:D 32.1402 
*END

*D_NET *86 0.000804778
*CONN
*I *1338:D I *D sky130_fd_sc_hd__dfxtp_2
*I *1271:X O *D sky130_fd_sc_hd__o311a_2
*CAP
1 *1338:D 0.000160773
2 *1271:X 0.000160773
3 *1338:D *1271:A1 0.000154762
4 *1338:D *1445:A 5.5782e-05
5 *1338:D *245:92 0.000272689
*RES
1 *1271:X *1338:D 32.1759 
*END

*D_NET *87 0.000741671
*CONN
*I *1339:D I *D sky130_fd_sc_hd__dfxtp_2
*I *1273:X O *D sky130_fd_sc_hd__o311a_2
*CAP
1 *1339:D 0.00017309
2 *1273:X 0.00017309
3 *1339:D *1271:A3 2.8266e-06
4 *1339:D *1273:B1 4.64337e-05
5 *1339:D *1281:A1 0.000147828
6 *1339:D *1412:A 0
7 *1339:D *102:100 5.49544e-05
8 *1339:D *245:57 0.000143447
*RES
1 *1273:X *1339:D 31.4795 
*END

*D_NET *88 0.000361026
*CONN
*I *1340:D I *D sky130_fd_sc_hd__dfxtp_2
*I *1275:X O *D sky130_fd_sc_hd__o311a_2
*CAP
1 *1340:D 9.05223e-05
2 *1275:X 9.05223e-05
3 *1340:D *1275:A1 0.000101545
4 *1340:D *1341:CLK 2.27416e-05
5 *1435:A *1340:D 5.56943e-05
*RES
1 *1275:X *1340:D 29.6402 
*END

*D_NET *89 0.000702642
*CONN
*I *1341:D I *D sky130_fd_sc_hd__dfxtp_2
*I *1277:X O *D sky130_fd_sc_hd__o311a_2
*CAP
1 *1341:D 0.000216528
2 *1277:X 0.000216528
3 *1341:D *1274:A 9.91086e-05
4 *1341:D *1274:B 8.6197e-05
5 *1341:D *1275:C1 8.42801e-05
6 *1341:D *1277:B1 0
7 *1341:D *102:25 0
8 *1341:D *268:83 0
*RES
1 *1277:X *1341:D 32.1759 
*END

*D_NET *90 0.000311745
*CONN
*I *1342:D I *D sky130_fd_sc_hd__dfxtp_2
*I *1279:X O *D sky130_fd_sc_hd__o311a_2
*CAP
1 *1342:D 0.000101331
2 *1279:X 0.000101331
3 *1342:D *1279:A1 5.33882e-05
4 tx_busy *1342:D 5.56943e-05
*RES
1 *1279:X *1342:D 29.7473 
*END

*D_NET *91 0.000506025
*CONN
*I *1343:D I *D sky130_fd_sc_hd__dfxtp_2
*I *1281:X O *D sky130_fd_sc_hd__o311a_2
*CAP
1 *1343:D 0.000147164
2 *1281:X 0.000147164
3 *1343:D *1273:A1 5.97401e-05
4 *1343:D *102:92 9.90431e-05
5 *1343:D *102:100 3.64793e-05
6 *1343:D *245:61 1.64343e-05
*RES
1 *1281:X *1343:D 30.3545 
*END

*D_NET *92 0.00184535
*CONN
*I *1080:A I *D sky130_fd_sc_hd__or2_2
*I *1078:A I *D sky130_fd_sc_hd__nand2_2
*I *1263:B1 I *D sky130_fd_sc_hd__a31o_2
*I *1067:Y O *D sky130_fd_sc_hd__inv_2
*CAP
1 *1080:A 0
2 *1078:A 7.37291e-05
3 *1263:B1 0.000346142
4 *1067:Y 0
5 *92:21 0.000172336
6 *92:4 0.00044475
7 *1078:A *196:51 0.000122951
8 *1078:A *387:12 9.25014e-06
9 *1078:A *387:18 0.000223599
10 *1263:B1 *1263:A2 2.19684e-05
11 *1263:B1 *1265:A1 0
12 *1263:B1 *1424:A 8.36572e-05
13 *1263:B1 *225:14 1.19402e-05
14 *1263:B1 *273:10 0
15 *1263:B1 *388:6 5.52238e-05
16 *92:21 *1080:B 5.33005e-05
17 *92:21 *1424:A 0.000226507
*RES
1 *1067:Y *92:4 9.3 
2 *92:4 *1263:B1 24.0679 
3 *92:4 *92:21 2.60714 
4 *92:21 *1078:A 21.1571 
5 *92:21 *1080:A 9.3 
*END

*D_NET *93 0.00230424
*CONN
*I *1097:A I *D sky130_fd_sc_hd__or2_2
*I *1185:A I *D sky130_fd_sc_hd__nand2_2
*I *1198:C1 I *D sky130_fd_sc_hd__a211o_2
*I *1068:Y O *D sky130_fd_sc_hd__inv_2
*CAP
1 *1097:A 0.000141548
2 *1185:A 0
3 *1198:C1 0.000360844
4 *1068:Y 0.00023934
5 *93:12 0.000458637
6 *1097:A *1068:A 9.71197e-05
7 *1097:A *1097:B 0.000139907
8 *1097:A *1190:D 0.00014285
9 *1097:A *1191:B1 7.43578e-06
10 *1097:A *158:16 5.54547e-05
11 *1198:C1 *1188:A1 0.000142023
12 *1198:C1 *1188:B1 9.179e-05
13 *1198:C1 *1198:A1 0
14 *1198:C1 *1198:B1 6.02722e-05
15 *1198:C1 *355:8 1.40415e-05
16 *93:12 *1068:A 7.6644e-05
17 *93:12 *1186:A 1.41029e-05
18 *93:12 *1309:CLK 0.000125717
19 *93:12 *158:16 5.33005e-05
20 *93:12 *355:16 8.32171e-05
*RES
1 *1068:Y *93:12 20.7821 
2 *93:12 *1198:C1 16.6036 
3 *93:12 *1185:A 9.3 
4 *1068:Y *1097:A 22.4214 
*END

*D_NET *94 0.00260782
*CONN
*I *1179:B I *D sky130_fd_sc_hd__nand2_2
*I *1180:B I *D sky130_fd_sc_hd__or2_2
*I *1177:A I *D sky130_fd_sc_hd__or2_2
*I *1069:Y O *D sky130_fd_sc_hd__inv_2
*CAP
1 *1179:B 1.38439e-05
2 *1180:B 0
3 *1177:A 0.000164137
4 *1069:Y 0.00040018
5 *94:10 0.000254989
6 *94:8 0.000504875
7 *1177:A *1207:C1 1.99099e-05
8 *1177:A *1369:A 3.51442e-05
9 *1177:A *1370:A 0.000122951
10 *1177:A *185:12 0.000125057
11 *1177:A *246:50 0.000227539
12 *1177:A *271:76 0
13 *1179:B *1369:A 8.32242e-05
14 *1179:B *172:17 7.46814e-05
15 *94:8 *1178:A1 3.67257e-05
16 *94:8 *269:25 1.05947e-05
17 *94:8 *269:38 2.87555e-06
18 *94:10 *1181:A 0.00015234
19 *94:10 *1207:C1 6.9019e-05
20 *94:10 *1369:A 0.000292701
21 *94:10 *172:17 1.02504e-05
22 *1308:D *94:8 6.78055e-06
*RES
1 *1069:Y *94:8 18.4429 
2 *94:8 *94:10 3.76786 
3 *94:10 *1177:A 19.1393 
4 *94:10 *1180:B 13.8 
5 *94:8 *1179:B 14.8357 
*END

*D_NET *95 0.000496844
*CONN
*I *1248:A1 I *D sky130_fd_sc_hd__o211a_2
*I *1070:Y O *D sky130_fd_sc_hd__inv_2
*CAP
1 *1248:A1 0.00018547
2 *1070:Y 0.00018547
3 *1414:A *1248:A1 0.000125905
*RES
1 *1070:Y *1248:A1 22.0018 
*END

*D_NET *96 0.00126296
*CONN
*I *1152:C1 I *D sky130_fd_sc_hd__o311a_2
*I *1071:Y O *D sky130_fd_sc_hd__inv_2
*CAP
1 *1152:C1 0.000454904
2 *1071:Y 0.000454904
3 *1152:C1 *117:16 0.000150625
4 *1152:C1 *243:18 5.03772e-05
5 *1152:C1 *243:20 0.000117432
6 *1152:C1 *243:65 2.89114e-05
7 *1152:C1 *264:12 5.80706e-06
*RES
1 *1071:Y *1152:C1 34.1893 
*END

*D_NET *97 0.00335196
*CONN
*I *1148:A I *D sky130_fd_sc_hd__and2_2
*I *1101:A I *D sky130_fd_sc_hd__or3_2
*I *1146:A1 I *D sky130_fd_sc_hd__a32o_2
*I *1072:Y O *D sky130_fd_sc_hd__inv_2
*CAP
1 *1148:A 0.000252297
2 *1101:A 0
3 *1146:A1 0.000295097
4 *1072:Y 6.5292e-05
5 *97:10 0.000353969
6 *97:6 0.000376462
7 *1146:A1 *1101:C 1.00887e-05
8 *1146:A1 *1115:D 0.000141935
9 *1146:A1 *1146:A2 0.000182804
10 *1146:A1 *1146:B1 1.62025e-05
11 *1146:A1 *116:18 0.000125542
12 *1146:A1 *346:25 3.42608e-05
13 *1148:A *1101:C 0.000130858
14 *1148:A *1113:B 9.71197e-05
15 *1148:A *1114:C 1.24368e-05
16 *1148:A *1144:B 3.18676e-05
17 *1148:A *1145:A 3.34366e-05
18 *1148:A *1147:A 0.000181368
19 *1148:A *1148:B 4.43256e-05
20 *1148:A *1149:A 0.000128154
21 *1148:A *1150:C1 0.000181803
22 *1148:A *1151:B1 2.22043e-05
23 *1148:A *243:71 0
24 *97:6 *1114:B 7.02611e-05
25 *97:6 *1114:C 0.000178847
26 *97:10 *1101:C 0.000197708
27 *97:10 *116:18 0.000187619
*RES
1 *1072:Y *97:6 11.0679 
2 *97:6 *97:10 7.05357 
3 *97:10 *1146:A1 18.8536 
4 *97:10 *1101:A 13.8 
5 *97:6 *1148:A 26.4071 
*END

*D_NET *98 0.00120576
*CONN
*I *1127:A1 I *D sky130_fd_sc_hd__a21oi_2
*I *1073:Y O *D sky130_fd_sc_hd__inv_2
*CAP
1 *1127:A1 0.000222605
2 *1073:Y 0.000222605
3 *1127:A1 *1126:A2 0.000308457
4 *1127:A1 *1127:A2 0.000209998
5 *1127:A1 *1127:B1 0.000100165
6 *1381:A *1127:A1 0.000141935
*RES
1 *1073:Y *1127:A1 34.6893 
*END

*D_NET *99 0.000684142
*CONN
*I *1110:A1 I *D sky130_fd_sc_hd__o31ai_2
*I *1074:Y O *D sky130_fd_sc_hd__inv_2
*CAP
1 *1110:A1 0.000132213
2 *1074:Y 0.000132213
3 *1110:A1 *248:33 0.000346639
4 *1110:A1 *273:105 7.3078e-05
*RES
1 *1074:Y *1110:A1 31.975 
*END

*D_NET *100 0.00213427
*CONN
*I *1371:A I *D sky130_fd_sc_hd__clkdlybuf4s25_1
*I *1075:Y O *D sky130_fd_sc_hd__inv_2
*CAP
1 *1371:A 0.00089015
2 *1075:Y 0.00089015
3 *1371:A *1301:D 0
4 *1371:A *1332:D 0.000154762
5 *1371:A *1345:CLK 0
6 *1371:A *248:29 0.000120645
7 *1371:A *273:105 4.46186e-06
8 *1371:A *384:27 7.40988e-05
9 *3:30 *1371:A 0
*RES
1 *1075:Y *1371:A 44.4036 
*END

*D_NET *101 0.00100273
*CONN
*I *1176:A1 I *D sky130_fd_sc_hd__o211a_2
*I *1174:A2 I *D sky130_fd_sc_hd__a21oi_2
*I *1076:Y O *D sky130_fd_sc_hd__inv_2
*CAP
1 *1176:A1 0.000276461
2 *1174:A2 5.85147e-05
3 *1076:Y 0
4 *101:4 0.000334975
5 *1174:A2 *1108:B 0
6 *1174:A2 *1370:A 1.02504e-05
7 *1174:A2 *368:49 0.000125724
8 *1174:A2 *370:16 2.59093e-05
9 *1176:A1 *1176:A2 5.02694e-05
10 *1176:A1 *1176:B1 3.28641e-05
11 *1176:A1 *1176:C1 7.16452e-05
12 *1176:A1 *170:8 6.8646e-06
13 *1176:A1 *368:67 9.25014e-06
*RES
1 *1076:Y *101:4 9.3 
2 *101:4 *1174:A2 19.9429 
3 *101:4 *1176:A1 22.0634 
*END

*D_NET *102 0.0124228
*CONN
*I *1281:A2 I *D sky130_fd_sc_hd__o311a_2
*I *1269:A2 I *D sky130_fd_sc_hd__o311a_2
*I *1271:A2 I *D sky130_fd_sc_hd__o311a_2
*I *1273:A2 I *D sky130_fd_sc_hd__o311a_2
*I *1279:A2 I *D sky130_fd_sc_hd__o311a_2
*I *1267:A2 I *D sky130_fd_sc_hd__o311a_2
*I *1277:A2 I *D sky130_fd_sc_hd__o311a_2
*I *1249:A I *D sky130_fd_sc_hd__nor2_2
*I *1275:A2 I *D sky130_fd_sc_hd__o311a_2
*I *1077:Y O *D sky130_fd_sc_hd__inv_2
*CAP
1 *1281:A2 6.55342e-05
2 *1269:A2 0
3 *1271:A2 0.000161899
4 *1273:A2 0
5 *1279:A2 0.000882228
6 *1267:A2 0.000933395
7 *1277:A2 0
8 *1249:A 7.8596e-05
9 *1275:A2 0
10 *1077:Y 0.000178087
11 *102:107 0.000292792
12 *102:100 0.000854574
13 *102:92 0.00130873
14 *102:44 0.000995029
15 *102:29 0.000301445
16 *102:25 0.000865666
17 *102:10 0.000519825
18 *1249:A *1277:A1 0.00015134
19 *1249:A *1277:A3 2.19778e-05
20 *1249:A *265:93 3.46992e-05
21 *1249:A *272:57 1.28585e-05
22 *1267:A2 *1079:A0 8.71761e-05
23 *1267:A2 *1267:A3 0.000266486
24 *1267:A2 *1276:A 9.5819e-05
25 *1267:A2 *219:67 0.000128154
26 *1267:A2 *265:108 5.12966e-05
27 *1267:A2 *268:79 0.000234874
28 *1267:A2 *390:12 0.000182723
29 *1271:A2 *1269:A1 0
30 *1271:A2 *1269:A3 9.41642e-05
31 *1271:A2 *1269:C1 5.52238e-05
32 *1271:A2 *1271:A3 0.000125333
33 *1271:A2 *268:50 8.40933e-05
34 *1271:A2 *268:58 5.56825e-05
35 *1279:A2 *1277:A1 0
36 *1279:A2 *1279:A3 9.90367e-05
37 *1279:A2 *265:54 0.0001746
38 *1279:A2 *265:65 8.46829e-05
39 *1279:A2 *265:69 0
40 *1281:A2 *1281:A1 4.22908e-05
41 *102:10 *1275:A1 1.02504e-05
42 *102:10 *244:39 0
43 *102:10 *250:10 0.000342495
44 *102:25 *1274:A 0
45 *102:25 *1275:B1 0.00013478
46 *102:25 *1275:C1 0
47 *102:25 *1341:CLK 6.17358e-05
48 *102:25 *265:54 0.00016494
49 *102:29 *1275:A1 0.000274294
50 *102:29 *1277:A1 5.52238e-05
51 *102:44 *1277:A1 5.52302e-05
52 *102:92 *1273:A1 0.000184745
53 *102:92 *1279:A1 0.000170523
54 *102:92 *1279:A3 7.43578e-06
55 *102:92 *1342:CLK 0
56 *102:92 *395:10 0
57 *102:100 *1269:A1 1.0486e-05
58 *102:100 *1273:A1 0.000331947
59 *102:100 *1281:A1 5.20669e-05
60 *102:100 *1281:A3 0.000108881
61 *102:107 *1269:A1 0.000238111
62 *102:107 *1271:A3 0.000434987
63 *102:107 *268:58 5.74499e-06
64 *1339:D *102:100 5.49544e-05
65 *1341:D *102:25 0
66 *1343:D *102:92 9.90431e-05
67 *1343:D *102:100 3.64793e-05
68 *1433:A *102:10 0
69 *1435:A *102:10 0
70 *1440:A *1281:A2 1.39841e-05
71 *1440:A *102:92 5.41494e-05
*RES
1 *1077:Y *102:10 22.675 
2 *102:10 *1275:A2 9.3 
3 *102:10 *102:25 11.1964 
4 *102:25 *102:29 8.32143 
5 *102:29 *1249:A 20.8536 
6 *102:29 *102:44 1.375 
7 *102:44 *1277:A2 9.3 
8 *102:44 *1267:A2 35.8 
9 *102:25 *1279:A2 20.7821 
10 *1279:A2 *102:92 29.4607 
11 *102:92 *102:100 23.0536 
12 *102:100 *1273:A2 9.3 
13 *102:100 *102:107 4.64286 
14 *102:107 *1271:A2 13.55 
15 *102:107 *1269:A2 9.3 
16 *102:92 *1281:A2 10.675 
*END

*D_NET *103 0.0021212
*CONN
*I *1083:B1 I *D sky130_fd_sc_hd__o21a_2
*I *1264:A I *D sky130_fd_sc_hd__or2_2
*I *1078:Y O *D sky130_fd_sc_hd__nand2_2
*CAP
1 *1083:B1 0.000269447
2 *1264:A 4.53801e-05
3 *1078:Y 0.000160663
4 *103:10 0.00047549
5 *1083:B1 *1083:A1 0
6 *1083:B1 *1259:B 9.87672e-05
7 *1083:B1 *1259:C 8.16036e-05
8 *1083:B1 *105:21 0
9 *1083:B1 *196:51 2.49484e-05
10 *1083:B1 *265:25 0.000198691
11 *1083:B1 *387:10 0
12 *103:10 *1213:A 0.000246801
13 *103:10 *196:8 5.33433e-05
14 *103:10 *196:51 7.95714e-05
15 *103:10 *262:10 0.000272339
16 *103:10 *262:33 2.11419e-05
17 *103:10 *265:25 9.30093e-05
*RES
1 *1078:Y *103:10 19.5321 
2 *103:10 *1264:A 14.3357 
3 *103:10 *1083:B1 20.0321 
*END

*D_NET *104 0.000576926
*CONN
*I *1082:A0 I *D sky130_fd_sc_hd__mux2_1
*I *1079:X O *D sky130_fd_sc_hd__mux4_2
*CAP
1 *1082:A0 0.000191298
2 *1079:X 0.000191298
3 *1082:A0 *219:27 0.000140933
4 *1082:A0 *219:67 5.33978e-05
5 *1336:D *1082:A0 0
*RES
1 *1079:X *1082:A0 31.1179 
*END

*D_NET *105 0.00243763
*CONN
*I *1251:A1 I *D sky130_fd_sc_hd__o21ba_2
*I *1083:A1 I *D sky130_fd_sc_hd__o21a_2
*I *1257:B1 I *D sky130_fd_sc_hd__a31o_2
*I *1250:A1 I *D sky130_fd_sc_hd__o21bai_2
*I *1080:X O *D sky130_fd_sc_hd__or2_2
*CAP
1 *1251:A1 0
2 *1083:A1 0.000146122
3 *1257:B1 8.07488e-05
4 *1250:A1 0
5 *1080:X 0.00024517
6 *105:21 0.000452985
7 *105:10 0.000357515
8 *105:6 0.000376571
9 *1083:A1 *1256:A2 0.000103267
10 *1083:A1 *1256:A3 5.7661e-06
11 *1083:A1 *1257:A1 0
12 *1083:A1 *1259:B 0.000143375
13 *1257:B1 *1257:A1 9.99853e-05
14 *1257:B1 *1258:A 2.75938e-05
15 *1257:B1 *384:64 0.000185124
16 *105:6 *265:8 8.20629e-05
17 *105:10 *1213:A 0
18 *105:10 *195:39 1.49841e-05
19 *105:10 *195:50 7.43965e-05
20 *105:10 *265:25 0
21 *105:21 *1079:S0 0
22 *105:21 *1251:B1_N 0
23 *105:21 *1256:A2 3.17148e-05
24 *105:21 *195:50 1.02504e-05
25 *105:21 *265:25 0
26 *1083:B1 *1083:A1 0
27 *1083:B1 *105:21 0
*RES
1 *1080:X *105:6 13.1214 
2 *105:6 *105:10 7.05357 
3 *105:10 *1250:A1 13.8 
4 *105:10 *105:21 3.69643 
5 *105:21 *1257:B1 15.9786 
6 *105:21 *1083:A1 17.2286 
7 *105:6 *1251:A1 9.3 
*END

*D_NET *106 0.00136348
*CONN
*I *1082:A1 I *D sky130_fd_sc_hd__mux2_1
*I *1081:X O *D sky130_fd_sc_hd__mux4_2
*CAP
1 *1082:A1 0.000334203
2 *1081:X 0.000334203
3 *1082:A1 *1079:A1 0.000111522
4 *1082:A1 *1081:S0 0
5 *1082:A1 *219:67 0.000191009
6 *1082:A1 *268:79 0.000291723
7 *1082:A1 *386:42 0.000100823
*RES
1 *1081:X *1082:A1 35.9214 
*END

*D_NET *107 0.00157089
*CONN
*I *1083:A2 I *D sky130_fd_sc_hd__o21a_2
*I *1082:X O *D sky130_fd_sc_hd__mux2_1
*CAP
1 *1083:A2 0.000655292
2 *1082:X 0.000655292
3 *1083:A2 *1256:A2 8.25843e-06
4 *1083:A2 *1256:A3 1.32056e-05
5 *1083:A2 *1259:B 0.000186765
6 *1083:A2 *219:27 5.20751e-05
*RES
1 *1082:X *1083:A2 38.85 
*END

*D_NET *108 0.00115134
*CONN
*I *1092:A I *D sky130_fd_sc_hd__and4_2
*I *1094:A I *D sky130_fd_sc_hd__and4_2
*I *1085:Y O *D sky130_fd_sc_hd__nor2_2
*CAP
1 *1092:A 0.000115703
2 *1094:A 3.26059e-05
3 *1085:Y 0.000244997
4 *108:8 0.000393305
5 *1092:A *1094:B 0.000170755
6 *1092:A *110:6 2.59355e-05
7 *1092:A *117:16 0.000101915
8 *1092:A *239:124 6.94441e-06
9 *1094:A *111:8 1.84776e-05
10 *108:8 *239:124 4.0698e-05
11 *108:8 *242:12 0
*RES
1 *1085:Y *108:8 18.175 
2 *108:8 *1094:A 14.3357 
3 *108:8 *1092:A 16.8893 
*END

*D_NET *109 0.00151694
*CONN
*I *1093:A I *D sky130_fd_sc_hd__or4b_2
*I *1102:A I *D sky130_fd_sc_hd__or4_2
*I *1086:X O *D sky130_fd_sc_hd__or2_2
*CAP
1 *1093:A 0.000102767
2 *1102:A 0
3 *1086:X 0.000209827
4 *109:10 0.000312595
5 *1093:A *1092:C 0.00018729
6 *1093:A *1093:B 7.89362e-05
7 *1093:A *1093:C 5.64523e-05
8 *1093:A *113:8 1.90223e-05
9 *1093:A *116:10 2.85321e-05
10 *109:10 *1092:C 5.51716e-05
11 *109:10 *112:8 0.000289572
12 *109:10 *113:8 0.000176775
*RES
1 *1086:X *109:10 19.5321 
2 *109:10 *1102:A 13.8 
3 *109:10 *1093:A 17.1929 
*END

*D_NET *110 0.000899179
*CONN
*I *1092:B I *D sky130_fd_sc_hd__and4_2
*I *1094:B I *D sky130_fd_sc_hd__and4_2
*I *1087:Y O *D sky130_fd_sc_hd__nor3_2
*CAP
1 *1092:B 6.15948e-05
2 *1094:B 8.59115e-05
3 *1087:Y 0.000136852
4 *110:6 0.000284358
5 *1094:B *117:16 2.47319e-05
6 *1094:B *239:124 0.00010904
7 *1092:A *1094:B 0.000170755
8 *1092:A *110:6 2.59355e-05
*RES
1 *1087:Y *110:6 11.4786 
2 *110:6 *1094:B 21.1571 
3 *110:6 *1092:B 10.2464 
*END

*D_NET *111 0.00163868
*CONN
*I *1102:B I *D sky130_fd_sc_hd__or4_2
*I *1093:B I *D sky130_fd_sc_hd__or4b_2
*I *1088:X O *D sky130_fd_sc_hd__or3_2
*CAP
1 *1102:B 0
2 *1093:B 3.08418e-05
3 *1088:X 0.000395897
4 *111:8 0.000426739
5 *1093:B *1093:C 7.89362e-05
6 *111:8 *1094:C 0.000107412
7 *111:8 *1094:D 4.97967e-05
8 *111:8 *117:16 0.00026454
9 *111:8 *124:14 0.0001871
10 *1093:A *1093:B 7.89362e-05
11 *1094:A *111:8 1.84776e-05
*RES
1 *1088:X *111:8 18.0679 
2 *111:8 *1093:B 19.3357 
3 *111:8 *1102:B 9.3 
*END

*D_NET *112 0.00237599
*CONN
*I *1092:C I *D sky130_fd_sc_hd__and4_2
*I *1094:C I *D sky130_fd_sc_hd__and4_2
*I *1089:Y O *D sky130_fd_sc_hd__nor4_2
*CAP
1 *1092:C 0.000322166
2 *1094:C 0.000226841
3 *1089:Y 0.000172228
4 *112:8 0.000721235
5 *1092:C *1093:D_N 0.000182804
6 *1092:C *116:10 3.69047e-06
7 *1094:C *1094:D 9.84729e-05
8 *112:8 *113:8 9.10431e-06
9 *1093:A *1092:C 0.00018729
10 *109:10 *1092:C 5.51716e-05
11 *109:10 *112:8 0.000289572
12 *111:8 *1094:C 0.000107412
*RES
1 *1089:Y *112:8 17.8714 
2 *112:8 *1094:C 18.175 
3 *112:8 *1092:C 20.3893 
*END

*D_NET *113 0.00137132
*CONN
*I *1093:C I *D sky130_fd_sc_hd__or4b_2
*I *1102:C I *D sky130_fd_sc_hd__or4_2
*I *1090:X O *D sky130_fd_sc_hd__or4_2
*CAP
1 *1093:C 0.000138544
2 *1102:C 0
3 *1090:X 0.000298981
4 *113:8 0.000437525
5 *1093:C *116:10 2.85321e-05
6 *113:8 *1089:C 0.000127446
7 *113:8 *347:10 0
8 *113:8 *351:21 0
9 *1093:A *1093:C 5.64523e-05
10 *1093:A *113:8 1.90223e-05
11 *1093:B *1093:C 7.89362e-05
12 *109:10 *113:8 0.000176775
13 *112:8 *113:8 9.10431e-06
*RES
1 *1090:X *113:8 20.6036 
2 *113:8 *1102:C 13.8 
3 *113:8 *1093:C 16.8893 
*END

*D_NET *114 0.00241612
*CONN
*I *1093:D_N I *D sky130_fd_sc_hd__or4b_2
*I *1092:D I *D sky130_fd_sc_hd__and4_2
*I *1094:D I *D sky130_fd_sc_hd__and4_2
*I *1091:X O *D sky130_fd_sc_hd__and4bb_2
*CAP
1 *1093:D_N 7.87283e-05
2 *1092:D 0
3 *1094:D 0.000140887
4 *1091:X 0.000473713
5 *114:23 7.87283e-05
6 *114:10 0.0006146
7 *1094:D *124:14 0.000146991
8 *1094:D *239:124 0.000109987
9 *114:10 *1091:A_N 5.4959e-05
10 *114:10 *124:14 0.000124749
11 *114:10 *239:124 6.01956e-05
12 *114:10 *243:18 3.09985e-05
13 *114:10 *243:20 4.58194e-05
14 *114:10 *243:65 0.000124689
15 *1092:C *1093:D_N 0.000182804
16 *1094:C *1094:D 9.84729e-05
17 *111:8 *1094:D 4.97967e-05
*RES
1 *1091:X *114:10 21.3179 
2 *114:10 *1094:D 17.6036 
3 *114:10 *114:23 4.5 
4 *114:23 *1092:D 9.3 
5 *114:23 *1093:D_N 11.0679 
*END

*D_NET *115 0.00558468
*CONN
*I *1153:D I *D sky130_fd_sc_hd__and4_2
*I *1176:B1 I *D sky130_fd_sc_hd__o211a_2
*I *1111:A2 I *D sky130_fd_sc_hd__a221o_2
*I *1092:X O *D sky130_fd_sc_hd__and4_2
*CAP
1 *1153:D 9.74968e-05
2 *1176:B1 0.000345776
3 *1111:A2 0.000333093
4 *1092:X 0.000390291
5 *115:35 0.000648406
6 *115:10 0.000928517
7 *1111:A2 *1111:B1 3.99614e-06
8 *1111:A2 *1111:B2 0
9 *1111:A2 *1112:B1 0.000274288
10 *1111:A2 *1152:A2 1.90936e-05
11 *1111:A2 *1344:CLK 0
12 *1111:A2 *300:42 0.000358397
13 *1111:A2 *369:27 0.000532224
14 *1153:D *1150:A1 2.37761e-05
15 *1153:D *1153:B 5.52302e-05
16 *1153:D *1153:C 1.52978e-05
17 *1153:D *1187:A 3.14078e-05
18 *1153:D *368:67 0.000137983
19 *1153:D *370:18 3.34366e-05
20 *1153:D *370:22 6.73939e-05
21 *1176:B1 *1153:A 5.33005e-05
22 *1176:B1 *1187:A 6.71657e-05
23 *115:10 *1071:A 0
24 *115:10 *1150:A3 0.000160657
25 *115:10 *124:14 0.000203629
26 *115:10 *239:122 0
27 *115:10 *243:10 7.48356e-05
28 *115:10 *243:14 9.24395e-05
29 *115:10 *370:22 3.52401e-05
30 *115:35 *1150:A1 0.000101802
31 *115:35 *369:27 0.000164936
32 *115:35 *370:22 0.00030171
33 *1176:A1 *1176:B1 3.28641e-05
34 *1292:D *115:10 0
*RES
1 *1092:X *115:10 26.5939 
2 *115:10 *1111:A2 22.2685 
3 *115:10 *115:35 7.59284 
4 *115:35 *1176:B1 19.0366 
5 *115:35 *1153:D 16.4964 
*END

*D_NET *116 0.00964921
*CONN
*I *1146:B1 I *D sky130_fd_sc_hd__a32o_2
*I *1198:A2 I *D sky130_fd_sc_hd__a211o_2
*I *1175:A2 I *D sky130_fd_sc_hd__a21o_2
*I *1095:C I *D sky130_fd_sc_hd__and3_2
*I *1098:A I *D sky130_fd_sc_hd__nor2_2
*I *1188:A2 I *D sky130_fd_sc_hd__a211o_2
*I *1151:A2 I *D sky130_fd_sc_hd__o2111a_2
*I *1093:X O *D sky130_fd_sc_hd__or4b_2
*CAP
1 *1146:B1 0.000311744
2 *1198:A2 2.37868e-05
3 *1175:A2 0.000101799
4 *1095:C 0.000109259
5 *1098:A 0
6 *1188:A2 0
7 *1151:A2 2.54135e-05
8 *1093:X 0.000733698
9 *116:63 0.000348325
10 *116:50 0.000185939
11 *116:48 0.000590167
12 *116:29 0.00109794
13 *116:18 0.00102179
14 *116:10 0.00146159
15 *1095:C *1095:A 5.45614e-05
16 *1095:C *121:8 0.000222666
17 *1146:B1 *1146:A2 1.53661e-05
18 *1146:B1 *1146:A3 0.000171633
19 *1151:A2 *1151:C1 6.05161e-06
20 *1175:A2 *1175:A1 5.71472e-05
21 *1175:A2 *1184:A2 5.52238e-05
22 *1175:A2 *239:153 7.8327e-05
23 *1175:A2 *271:45 0
24 *1198:A2 *1098:B 4.18895e-05
25 *1198:A2 *368:108 6.05161e-06
26 *116:10 *1115:B 0.000505229
27 *116:10 *1146:A3 4.11486e-05
28 *116:18 *1100:A 1.08359e-05
29 *116:18 *1101:C 0.000357431
30 *116:18 *1102:D 0.000192867
31 *116:18 *1113:A 0.00034321
32 *116:18 *1151:B1 4.40802e-05
33 *116:18 *1151:C1 0.000102545
34 *116:18 *122:10 1.12323e-05
35 *116:18 *344:14 5.03694e-05
36 *116:18 *344:16 5.40677e-05
37 *116:18 *344:18 9.52639e-05
38 *116:29 *1113:B 0
39 *116:29 *1151:B1 4.46186e-06
40 *116:29 *1184:B2 3.93893e-05
41 *116:29 *1293:CLK 0
42 *116:29 *120:8 1.43e-05
43 *116:29 *178:10 0
44 *116:29 *344:14 8.77022e-05
45 *116:29 *355:16 0
46 *116:48 *271:45 9.87983e-06
47 *116:48 *368:108 1.90936e-05
48 *116:50 *1098:B 0.00014183
49 *116:50 *271:49 1.39726e-05
50 *116:63 *1098:B 6.5053e-05
51 *116:63 *1198:A1 0
52 *116:63 *121:8 0.000186669
53 *116:63 *271:49 9.28602e-05
54 *1092:C *116:10 3.69047e-06
55 *1093:A *116:10 2.85321e-05
56 *1093:C *116:10 2.85321e-05
57 *1146:A1 *1146:B1 1.62025e-05
58 *1146:A1 *116:18 0.000125542
59 *1293:D *116:29 0
60 *1295:D *1151:A2 5.52302e-05
61 *97:10 *116:18 0.000187619
*RES
1 *1093:X *116:10 19.8179 
2 *116:10 *116:18 18.0357 
3 *116:18 *1151:A2 14.3357 
4 *116:18 *116:29 9.83929 
5 *116:29 *1188:A2 13.8 
6 *116:29 *116:48 12.4365 
7 *116:48 *116:50 1.35714 
8 *116:50 *1098:A 9.3 
9 *116:50 *116:63 4.39286 
10 *116:63 *1095:C 11.9071 
11 *116:63 *1175:A2 20.7821 
12 *116:48 *1198:A2 9.83571 
13 *116:10 *1146:B1 14.4607 
*END

*D_NET *117 0.00561495
*CONN
*I *1154:C I *D sky130_fd_sc_hd__and3_2
*I *1155:C I *D sky130_fd_sc_hd__nand3_2
*I *1094:X O *D sky130_fd_sc_hd__and4_2
*CAP
1 *1154:C 6.99108e-05
2 *1155:C 0.000157806
3 *1094:X 0.00122264
4 *117:16 0.00131054
5 *1154:C *1154:B 7.26949e-05
6 *1154:C *1190:C 4.44291e-05
7 *1154:C *266:117 6.5323e-05
8 *1155:C *1099:A2 4.88637e-05
9 *1155:C *1155:A 5.52302e-05
10 *1155:C *266:117 0.000301867
11 *1155:C *271:59 4.13496e-05
12 *117:16 *1112:A1 0.000128154
13 *117:16 *1112:B1 0.000100673
14 *117:16 *1152:A2 3.73785e-05
15 *117:16 *1187:A 9.59532e-06
16 *117:16 *1370:A 0.000111073
17 *117:16 *1430:A 0.000243635
18 *117:16 *169:14 0.000132297
19 *117:16 *169:18 0
20 *117:16 *239:122 0.000316301
21 *117:16 *239:124 7.26459e-05
22 *117:16 *264:12 1.50087e-05
23 *117:16 *300:42 3.97526e-05
24 *117:16 *340:10 0.000129868
25 *117:16 *368:36 7.47029e-06
26 *117:16 *368:49 0.000171375
27 *117:16 *370:91 0
28 *1092:A *117:16 0.000101915
29 *1094:B *117:16 2.47319e-05
30 *1152:C1 *117:16 0.000150625
31 *1404:A *117:16 0.000167256
32 *111:8 *117:16 0.00026454
*RES
1 *1094:X *117:16 47.4786 
2 *117:16 *1155:C 12.3179 
3 *1155:C *1154:C 21.3679 
*END

*D_NET *118 0.00117707
*CONN
*I *1099:B1 I *D sky130_fd_sc_hd__a31o_2
*I *1095:X O *D sky130_fd_sc_hd__and3_2
*CAP
1 *1099:B1 0.000369269
2 *1095:X 0.000369269
3 *1099:B1 *1099:A3 0.000148189
4 *1099:B1 *1370:A 7.50601e-05
5 *1099:B1 *121:8 0.00021528
*RES
1 *1095:X *1099:B1 33.3679 
*END

*D_NET *119 0.00730516
*CONN
*I *1097:B I *D sky130_fd_sc_hd__or2_2
*I *1185:B I *D sky130_fd_sc_hd__nand2_2
*I *1196:A1 I *D sky130_fd_sc_hd__o21bai_2
*I *1197:A2 I *D sky130_fd_sc_hd__o311a_2
*I *1206:A1 I *D sky130_fd_sc_hd__o21bai_2
*I *1207:A2 I *D sky130_fd_sc_hd__o311a_2
*I *1096:Y O *D sky130_fd_sc_hd__nand2_2
*CAP
1 *1097:B 7.22029e-05
2 *1185:B 0.000125686
3 *1196:A1 0.000166051
4 *1197:A2 0
5 *1206:A1 3.58421e-05
6 *1207:A2 0.000100243
7 *1096:Y 0.000150056
8 *119:50 0.000825013
9 *119:14 0.000310509
10 *119:12 0.000174425
11 *119:10 0.000468429
12 *119:6 0.00107956
13 *1185:B *1068:A 6.07232e-05
14 *1185:B *1309:CLK 0
15 *1185:B *120:8 0
16 *1185:B *179:8 6.42242e-05
17 *1185:B *179:25 2.61337e-05
18 *1185:B *355:16 4.81157e-05
19 *1196:A1 *1170:A 0
20 *1196:A1 *1196:A2 0
21 *1196:A1 *1197:B1 7.73662e-05
22 *1196:A1 *1200:C 0
23 *1196:A1 *158:43 2.89114e-05
24 *1196:A1 *269:57 1.66503e-05
25 *1206:A1 *267:42 1.04232e-05
26 *1207:A2 *1207:B1 0.000317082
27 *1207:A2 *185:62 0.00049041
28 *1207:A2 *267:42 8.18783e-05
29 *119:6 *269:38 0.000574067
30 *119:6 *353:40 0.000268682
31 *119:10 *1201:A2 0.000145574
32 *119:10 *179:89 4.84947e-05
33 *119:10 *269:38 0.000125731
34 *119:10 *269:57 0.00055683
35 *119:10 *354:75 1.08359e-05
36 *119:14 *1197:A1 0.000119203
37 *119:14 *267:42 1.55885e-05
38 *119:14 *269:57 9.60875e-05
39 *119:50 *1157:A2 0
40 *119:50 *1157:C1 0
41 *119:50 *1309:CLK 0
42 *119:50 *179:25 0.000288487
43 *119:50 *179:89 0
44 *1097:A *1097:B 0.000139907
45 *1310:D *119:50 0.000177948
46 *1313:D *1196:A1 7.79781e-06
*RES
1 *1096:Y *119:6 15.175 
2 *119:6 *119:10 13.4286 
3 *119:10 *119:12 4.5 
4 *119:12 *119:14 3.41071 
5 *119:14 *1207:A2 14.3536 
6 *119:14 *1206:A1 10.0321 
7 *119:12 *1197:A2 9.3 
8 *119:10 *1196:A1 17.1929 
9 *119:6 *119:50 17.3393 
10 *119:50 *1185:B 16.9607 
11 *119:50 *1097:B 15.1571 
*END

*D_NET *120 0.00194864
*CONN
*I *1098:B I *D sky130_fd_sc_hd__nor2_2
*I *1184:B2 I *D sky130_fd_sc_hd__a22o_2
*I *1097:X O *D sky130_fd_sc_hd__or2_2
*CAP
1 *1098:B 0.000370155
2 *1184:B2 6.14416e-05
3 *1097:X 0.000196458
4 *120:8 0.000628054
5 *1098:B *1188:A1 1.68715e-05
6 *1098:B *1188:B1 8.17274e-05
7 *1098:B *1198:B1 0.00010911
8 *1098:B *368:108 1.56e-05
9 *1184:B2 *1188:C1 9.91086e-05
10 *1184:B2 *178:10 1.41029e-05
11 *120:8 *1188:C1 4.38621e-05
12 *120:8 *1190:B 9.69119e-06
13 *120:8 *179:8 0
14 *120:8 *185:8 0
15 *120:8 *271:45 0
16 *120:8 *368:108 0
17 *1185:B *120:8 0
18 *1198:A2 *1098:B 4.18895e-05
19 *116:29 *1184:B2 3.93893e-05
20 *116:29 *120:8 1.43e-05
21 *116:50 *1098:B 0.00014183
22 *116:63 *1098:B 6.5053e-05
*RES
1 *1097:X *120:8 16.6571 
2 *120:8 *1184:B2 15.4429 
3 *120:8 *1098:B 20.2464 
*END

*D_NET *121 0.00351598
*CONN
*I *1099:A3 I *D sky130_fd_sc_hd__a31o_2
*I *1108:B I *D sky130_fd_sc_hd__or3b_2
*I *1098:Y O *D sky130_fd_sc_hd__nor2_2
*CAP
1 *1099:A3 0.000118544
2 *1108:B 0.000331063
3 *1098:Y 0.00026763
4 *121:8 0.000717237
5 *1099:A3 *1099:A1 0.000187726
6 *1099:A3 *1099:A2 9.41642e-05
7 *1099:A3 *1370:A 1.78447e-05
8 *1099:A3 *246:56 5.33005e-05
9 *1099:A3 *266:102 4.74013e-05
10 *1108:B *1099:A1 0.000153047
11 *1108:B *1105:C 0
12 *1108:B *1152:A2 1.19309e-05
13 *1108:B *1203:C1 0
14 *1108:B *1370:A 2.78729e-05
15 *1108:B *129:20 9.32873e-05
16 *1108:B *266:38 4.46186e-06
17 *1108:B *367:27 0
18 *1108:B *368:36 1.69115e-05
19 *1108:B *368:49 0
20 *1108:B *370:16 0.000202089
21 *121:8 *1095:A 2.95726e-05
22 *121:8 *271:49 0.000209229
23 *121:8 *271:59 2.89016e-05
24 *121:8 *370:16 1.58163e-05
25 *121:8 *370:87 0.000115141
26 *1095:C *121:8 0.000222666
27 *1099:B1 *1099:A3 0.000148189
28 *1099:B1 *121:8 0.00021528
29 *1174:A2 *1108:B 0
30 *116:63 *121:8 0.000186669
*RES
1 *1098:Y *121:8 22.55 
2 *121:8 *1108:B 22.1214 
3 *121:8 *1099:A3 17.7107 
*END

*D_NET *122 0.00199192
*CONN
*I *1151:B1 I *D sky130_fd_sc_hd__o2111a_2
*I *1101:C I *D sky130_fd_sc_hd__or3_2
*I *1100:X O *D sky130_fd_sc_hd__or2_2
*CAP
1 *1151:B1 0.000128524
2 *1101:C 0.000216754
3 *1100:X 2.16223e-05
4 *122:10 0.000366901
5 *1101:C *1101:B 3.88682e-05
6 *1101:C *1145:A 3.87848e-05
7 *1101:C *1149:A 0.000129868
8 *1101:C *346:25 5.54817e-06
9 *1151:B1 *1147:A 2.1527e-05
10 *1151:B1 *1151:C1 9.91086e-05
11 *1151:B1 *1151:D1 3.9745e-05
12 *122:10 *1113:A 5.33005e-05
13 *122:10 *1150:C1 5.33005e-05
14 *1146:A1 *1101:C 1.00887e-05
15 *1148:A *1101:C 0.000130858
16 *1148:A *1151:B1 2.22043e-05
17 *97:10 *1101:C 0.000197708
18 *116:18 *1101:C 0.000357431
19 *116:18 *1151:B1 4.40802e-05
20 *116:18 *122:10 1.12323e-05
21 *116:29 *1151:B1 4.46186e-06
*RES
1 *1100:X *122:10 14.6125 
2 *122:10 *1101:C 21.5946 
3 *122:10 *1151:B1 17.0411 
*END

*D_NET *123 0.00154747
*CONN
*I *1102:D I *D sky130_fd_sc_hd__or4_2
*I *1101:X O *D sky130_fd_sc_hd__or3_2
*CAP
1 *1102:D 0.000562319
2 *1101:X 0.000562319
3 *1102:D *1115:B 0.000166973
4 *1102:D *1143:B 2.53112e-06
5 *1102:D *133:10 5.13026e-05
6 *1102:D *344:18 9.15842e-06
7 *116:18 *1102:D 0.000192867
*RES
1 *1101:X *1102:D 38.6714 
*END

*D_NET *124 0.00973743
*CONN
*I *1150:A3 I *D sky130_fd_sc_hd__o311a_2
*I *1152:A3 I *D sky130_fd_sc_hd__o311a_2
*I *1103:A I *D sky130_fd_sc_hd__inv_2
*I *1110:A2 I *D sky130_fd_sc_hd__o31ai_2
*I *1106:A2 I *D sky130_fd_sc_hd__a21oi_2
*I *1102:X O *D sky130_fd_sc_hd__or4_2
*CAP
1 *1150:A3 0.000454716
2 *1152:A3 0
3 *1103:A 0
4 *1110:A2 0.000463233
5 *1106:A2 0.000145197
6 *1102:X 0.000371636
7 *124:34 0.000776498
8 *124:30 0.000949484
9 *124:18 0.00100639
10 *124:14 0.00105133
11 *1106:A2 *1074:A 0
12 *1106:A2 *1106:B1 0
13 *1106:A2 *1111:B1 0.000125724
14 *1106:A2 *300:8 7.90536e-05
15 *1110:A2 *1074:A 0
16 *1110:A2 *1106:B1 0
17 *1110:A2 *1111:B1 0.000153054
18 *1110:A2 *1345:CLK 7.48356e-05
19 *1110:A2 *129:20 0
20 *1150:A3 *1123:A 0.000108734
21 *1150:A3 *1150:A2 5.52302e-05
22 *1150:A3 *1364:A 9.76689e-05
23 *1150:A3 *239:122 6.22185e-05
24 *1150:A3 *239:124 0.00010209
25 *1150:A3 *243:10 1.05947e-05
26 *1150:A3 *370:22 1.76135e-05
27 *124:14 *239:124 0.000105317
28 *124:18 *264:22 5.71472e-05
29 *124:18 *340:19 9.7659e-05
30 *124:30 *1108:A 1.69961e-05
31 *124:30 *1111:C1 9.59532e-06
32 *124:30 *1112:A3 0.000402784
33 *124:30 *1122:A 1.87955e-05
34 *124:30 *1129:C 0
35 *124:30 *1344:CLK 0.000374132
36 *124:30 *1418:A 0
37 *124:30 *243:40 0.000250201
38 *124:30 *264:22 0.000474016
39 *124:30 *365:10 2.27416e-05
40 *124:30 *367:6 3.67142e-05
41 *124:30 *367:27 5.04705e-05
42 *124:34 *1108:A 0.000337439
43 *124:34 *365:10 0.000174361
44 *1094:D *124:14 0.000146991
45 *1292:D *1150:A3 7.6644e-05
46 *1306:D *1110:A2 0.00025263
47 *1345:D *1110:A2 0
48 *1404:A *124:18 1.32552e-05
49 *3:30 *1110:A2 4.67441e-06
50 *54:8 *1110:A2 3.34295e-05
51 *111:8 *124:14 0.0001871
52 *114:10 *124:14 0.000124749
53 *115:10 *1150:A3 0.000160657
54 *115:10 *124:14 0.000203629
*RES
1 *1102:X *124:14 22.425 
2 *124:14 *124:18 8.32143 
3 *124:18 *124:30 26.3214 
4 *124:30 *124:34 10.375 
5 *124:34 *1106:A2 16.7911 
6 *124:34 *1110:A2 23.6036 
7 *124:30 *1103:A 9.3 
8 *124:18 *1152:A3 9.3 
9 *124:14 *1150:A3 32.5679 
*END

*D_NET *125 0.00212226
*CONN
*I *1112:A3 I *D sky130_fd_sc_hd__a31o_2
*I *1103:Y O *D sky130_fd_sc_hd__inv_2
*CAP
1 *1112:A3 0.000359219
2 *1103:Y 0.000359219
3 *1112:A3 *1108:A 0.000574067
4 *1112:A3 *1151:A1 3.57366e-05
5 *1112:A3 *1344:CLK 0.000208402
6 *1112:A3 *266:38 9.00795e-06
7 *1344:D *1112:A3 0.000173823
8 *124:30 *1112:A3 0.000402784
*RES
1 *1103:Y *1112:A3 28.3321 
*END

*D_NET *126 0.00272532
*CONN
*I *1111:B1 I *D sky130_fd_sc_hd__a221o_2
*I *1104:Y O *D sky130_fd_sc_hd__nand2b_2
*CAP
1 *1111:B1 0.000892648
2 *1104:Y 0.000892648
3 *1111:B1 *1106:B1 0.000175493
4 *1111:B1 *1111:B2 0.000104049
5 *1111:B1 *1111:C1 0.000101601
6 *1111:B1 *1418:A 0.000126629
7 *1111:B1 *300:42 0.00014948
8 *1106:A2 *1111:B1 0.000125724
9 *1110:A2 *1111:B1 0.000153054
10 *1111:A2 *1111:B1 3.99614e-06
*RES
1 *1104:Y *1111:B1 41.475 
*END

*D_NET *127 0.00446891
*CONN
*I *1174:B1 I *D sky130_fd_sc_hd__a21oi_2
*I *1176:A2 I *D sky130_fd_sc_hd__o211a_2
*I *1106:B1 I *D sky130_fd_sc_hd__a21oi_2
*I *1105:X O *D sky130_fd_sc_hd__and3b_2
*CAP
1 *1174:B1 0
2 *1176:A2 0.000178042
3 *1106:B1 0.000632768
4 *1105:X 0
5 *127:23 0.000530986
6 *127:4 0.000985712
7 *1106:B1 *1104:B 0.000145276
8 *1106:B1 *1105:B 2.95641e-05
9 *1106:B1 *1367:A 0
10 *1106:B1 *300:8 5.71472e-05
11 *1106:B1 *300:42 0.000276211
12 *1106:B1 *365:10 0
13 *1106:B1 *366:6 0.000247216
14 *1106:B1 *369:10 8.6229e-06
15 *1106:B1 *369:27 5.63803e-05
16 *1176:A2 *1175:B1 2.28598e-05
17 *1176:A2 *239:122 8.82021e-05
18 *1176:A2 *368:67 9.8574e-05
19 *1176:A2 *370:22 0
20 *127:23 *1105:A_N 2.89114e-05
21 *127:23 *1105:B 7.61932e-05
22 *127:23 *1175:B1 5.71472e-05
23 *127:23 *1203:C1 5.62995e-05
24 *127:23 *1407:A 5.7661e-06
25 *127:23 *266:81 0.000123673
26 *127:23 *271:19 0.000278392
27 *127:23 *368:53 5.33005e-05
28 *127:23 *368:67 8.25996e-05
29 *127:23 *370:16 4.16984e-05
30 *1106:A2 *1106:B1 0
31 *1110:A2 *1106:B1 0
32 *1111:B1 *1106:B1 0.000175493
33 *1176:A1 *1176:A2 5.02694e-05
34 *1345:D *1106:B1 8.16036e-05
*RES
1 *1105:X *127:4 9.3 
2 *127:4 *1106:B1 33.8714 
3 *127:4 *127:23 9.58929 
4 *127:23 *1176:A2 22.05 
5 *127:23 *1174:B1 9.3 
*END

*D_NET *128 0.000376998
*CONN
*I *1107:B I *D sky130_fd_sc_hd__nor2_2
*I *1106:Y O *D sky130_fd_sc_hd__a21oi_2
*CAP
1 *1107:B 0.000160884
2 *1106:Y 0.000160884
3 *1107:B *1074:A 5.52302e-05
4 *1107:B *1173:A 0
*RES
1 *1106:Y *1107:B 21.225 
*END

*D_NET *129 0.00269743
*CONN
*I *1110:B1 I *D sky130_fd_sc_hd__o31ai_2
*I *1108:X O *D sky130_fd_sc_hd__or3b_2
*CAP
1 *1110:B1 0
2 *1108:X 0.00106991
3 *129:20 0.00106991
4 *129:20 *1203:C1 2.34204e-05
5 *129:20 *239:10 1.57393e-05
6 *129:20 *239:23 0.000118201
7 *129:20 *239:105 8.12432e-05
8 *129:20 *239:110 4.37731e-05
9 *129:20 *266:75 3.5707e-05
10 *129:20 *266:81 0
11 *1108:B *129:20 9.32873e-05
12 *1110:A2 *129:20 0
13 *1345:D *129:20 6.7945e-05
14 *1348:A *129:20 7.83037e-05
*RES
1 *1108:X *129:20 43.55 
2 *129:20 *1110:B1 9.3 
*END

*D_NET *130 0.00127124
*CONN
*I *1112:B1 I *D sky130_fd_sc_hd__a31o_2
*I *1111:X O *D sky130_fd_sc_hd__a221o_2
*CAP
1 *1112:B1 0.000384791
2 *1111:X 0.000384791
3 *1112:B1 *239:122 4.93223e-05
4 *1112:B1 *300:42 4.43256e-05
5 *1112:B1 *370:26 3.30526e-05
6 *1111:A2 *1112:B1 0.000274288
7 *117:16 *1112:B1 0.000100673
*RES
1 *1111:X *1112:B1 33.5821 
*END

*D_NET *131 0.00131099
*CONN
*I *1148:B I *D sky130_fd_sc_hd__and2_2
*I *1151:C1 I *D sky130_fd_sc_hd__o2111a_2
*I *1113:Y O *D sky130_fd_sc_hd__nand2_2
*CAP
1 *1148:B 0.000166557
2 *1151:C1 0.000147696
3 *1113:Y 0
4 *131:4 0.000314254
5 *1148:B *1113:A 5.52238e-05
6 *1148:B *1113:B 0.000137983
7 *1148:B *1150:C1 1.02821e-05
8 *1148:B *142:38 0.000181796
9 *1148:A *1148:B 4.43256e-05
10 *1151:A2 *1151:C1 6.05161e-06
11 *1151:B1 *1151:C1 9.91086e-05
12 *1295:D *1151:C1 4.51611e-05
13 *116:18 *1151:C1 0.000102545
*RES
1 *1113:Y *131:4 9.3 
2 *131:4 *1151:C1 20.9964 
3 *131:4 *1148:B 13.1393 
*END

*D_NET *132 0.00130989
*CONN
*I *1149:A I *D sky130_fd_sc_hd__nor2_2
*I *1144:B I *D sky130_fd_sc_hd__nor2_2
*I *1114:X O *D sky130_fd_sc_hd__and3_2
*CAP
1 *1149:A 0.000191138
2 *1144:B 0.000200492
3 *1114:X 0.00039163
4 *1144:B *1145:A 0.00010898
5 *1144:B *1145:B 2.45065e-05
6 *1144:B *243:71 0.000103253
7 *1101:C *1149:A 0.000129868
8 *1148:A *1144:B 3.18676e-05
9 *1148:A *1149:A 0.000128154
*RES
1 *1114:X *1144:B 31.3143 
2 *1114:X *1149:A 31.4214 
*END

*D_NET *133 0.00613449
*CONN
*I *1145:A I *D sky130_fd_sc_hd__nor2_2
*I *1142:A2 I *D sky130_fd_sc_hd__o21ai_2
*I *1116:B I *D sky130_fd_sc_hd__and2_2
*I *1138:A1 I *D sky130_fd_sc_hd__a21o_2
*I *1118:B I *D sky130_fd_sc_hd__and3_2
*I *1119:C I *D sky130_fd_sc_hd__and4_2
*I *1115:X O *D sky130_fd_sc_hd__and4_2
*CAP
1 *1145:A 0.00033955
2 *1142:A2 0.000209287
3 *1116:B 0
4 *1138:A1 0.000143458
5 *1118:B 0
6 *1119:C 0.000275933
7 *1115:X 1.42517e-05
8 *133:47 0.000209287
9 *133:16 0.000374147
10 *133:14 0.000339079
11 *133:10 0.000611135
12 *133:6 0.000867531
13 *1119:C *1119:B 9.2144e-05
14 *1119:C *1119:D 0.000335929
15 *1119:C *1136:A1 6.42338e-05
16 *1119:C *135:8 9.4724e-05
17 *1119:C *264:96 5.33005e-05
18 *1119:C *349:47 3.88892e-05
19 *1138:A1 *1138:A2 0.000186662
20 *1138:A1 *349:16 2.86259e-05
21 *1142:A2 *1143:B 5.52238e-05
22 *1142:A2 *134:8 0.00010013
23 *1142:A2 *264:96 3.14193e-05
24 *1145:A *1101:B 7.89309e-05
25 *1145:A *1115:B 1.52217e-05
26 *1145:A *1115:D 0.000348863
27 *1145:A *1146:A2 4.17702e-05
28 *1145:A *1146:A3 0.000351467
29 *1145:A *1147:A 5.71472e-05
30 *1145:A *243:71 2.6949e-05
31 *1145:A *346:25 0.000144732
32 *133:6 *1115:B 2.85234e-05
33 *133:6 *1115:D 5.49995e-05
34 *133:10 *1089:D 0
35 *133:10 *1115:B 1.12669e-05
36 *133:10 *1143:B 0
37 *133:10 *1146:A3 3.2923e-05
38 *133:10 *135:8 4.38511e-05
39 *133:10 *347:10 0
40 *133:14 *1142:B1 0
41 *133:14 *135:8 2.6949e-05
42 *133:14 *264:96 7.6644e-05
43 *133:16 *1138:A2 1.21289e-05
44 *133:16 *264:96 8.46829e-05
45 *1101:C *1145:A 3.87848e-05
46 *1102:D *133:10 5.13026e-05
47 *1144:B *1145:A 0.00010898
48 *1148:A *1145:A 3.34366e-05
*RES
1 *1115:X *133:6 9.83571 
2 *133:6 *133:10 14.3393 
3 *133:10 *133:14 6.44643 
4 *133:14 *133:16 1.35714 
5 *133:16 *1119:C 25.0321 
6 *133:16 *1118:B 9.3 
7 *133:14 *1138:A1 12.6393 
8 *133:10 *133:47 4.5 
9 *133:47 *1116:B 9.3 
10 *133:47 *1142:A2 13.8179 
11 *133:6 *1145:A 28.05 
*END

*D_NET *134 0.00281708
*CONN
*I *1141:A2 I *D sky130_fd_sc_hd__a21oi_2
*I *1143:A I *D sky130_fd_sc_hd__nor2_2
*I *1140:A2 I *D sky130_fd_sc_hd__o21ai_2
*I *1116:X O *D sky130_fd_sc_hd__and2_2
*CAP
1 *1141:A2 0
2 *1143:A 0.00038469
3 *1140:A2 0.000213809
4 *1116:X 0.000140548
5 *134:12 0.00080154
6 *134:8 0.000343589
7 *1143:A *1140:B1 1.06172e-05
8 *1143:A *1143:B 5.50052e-05
9 *134:8 *1140:B1 0.000405733
10 *134:8 *1143:B 3.18676e-05
11 *134:8 *264:96 9.90367e-05
12 *134:12 *1140:B1 0.000138109
13 *134:12 *1142:A1 0
14 *134:12 *1143:B 0
15 *134:12 *1289:CLK 9.24056e-05
16 *1142:A2 *134:8 0.00010013
*RES
1 *1116:X *134:8 14.3714 
2 *134:8 *134:12 9.48214 
3 *134:12 *1140:A2 17.2286 
4 *134:12 *1143:A 19.8893 
5 *134:8 *1141:A2 9.3 
*END

*D_NET *135 0.00239896
*CONN
*I *1138:A2 I *D sky130_fd_sc_hd__a21o_2
*I *1118:C I *D sky130_fd_sc_hd__and3_2
*I *1119:D I *D sky130_fd_sc_hd__and4_2
*I *1117:X O *D sky130_fd_sc_hd__and2_2
*CAP
1 *1138:A2 7.17459e-05
2 *1118:C 0
3 *1119:D 0.000231118
4 *1117:X 0.000242622
5 *135:23 7.17459e-05
6 *135:8 0.000473741
7 *1119:D *1119:A 6.51946e-05
8 *1119:D *1119:B 3.67257e-05
9 *1119:D *1139:A_N 0.000109789
10 *1119:D *1139:B 0
11 *1138:A2 *264:96 5.33433e-05
12 *1138:A2 *349:16 0.000230475
13 *1138:A2 *349:26 6.20968e-05
14 *135:8 *1089:D 0
15 *135:8 *1139:B 0
16 *135:8 *264:96 5.01213e-05
17 *135:8 *349:47 0
18 *1119:C *1119:D 0.000335929
19 *1119:C *135:8 9.4724e-05
20 *1138:A1 *1138:A2 0.000186662
21 *133:10 *135:8 4.38511e-05
22 *133:14 *135:8 2.6949e-05
23 *133:16 *1138:A2 1.21289e-05
*RES
1 *1117:X *135:8 18.4786 
2 *135:8 *1119:D 19.55 
3 *135:8 *135:23 4.5 
4 *135:23 *1118:C 9.3 
5 *135:23 *1138:A2 12.7286 
*END

*D_NET *136 0.00206178
*CONN
*I *1139:A_N I *D sky130_fd_sc_hd__and3b_2
*I *1136:A2 I *D sky130_fd_sc_hd__o21ai_2
*I *1118:X O *D sky130_fd_sc_hd__and3_2
*CAP
1 *1139:A_N 0.00034748
2 *1136:A2 4.35843e-05
3 *1118:X 0.000404364
4 *136:10 0.000795428
5 *1136:A2 *1119:B 0
6 *1136:A2 *137:20 0
7 *1139:A_N *1136:A1 0.0001399
8 *1139:A_N *137:10 3.48705e-05
9 *136:10 *1119:B 0
10 *136:10 *1136:B1 0
11 *136:10 *137:20 0
12 *136:10 *264:96 4.8035e-05
13 *136:10 *349:26 9.90431e-05
14 *136:10 *350:37 3.92854e-05
15 *1119:D *1139:A_N 0.000109789
*RES
1 *1118:X *136:10 20.1571 
2 *136:10 *1136:A2 14.5321 
3 *136:10 *1139:A_N 20.1214 
*END

*D_NET *137 0.00502347
*CONN
*I *1137:A I *D sky130_fd_sc_hd__nor2_2
*I *1135:A2 I *D sky130_fd_sc_hd__a21oi_2
*I *1134:A2 I *D sky130_fd_sc_hd__o21ai_2
*I *1121:D I *D sky130_fd_sc_hd__and4_2
*I *1120:C I *D sky130_fd_sc_hd__and3_2
*I *1132:A2 I *D sky130_fd_sc_hd__a21o_2
*I *1119:X O *D sky130_fd_sc_hd__and4_2
*CAP
1 *1137:A 0
2 *1135:A2 0
3 *1134:A2 8.26369e-05
4 *1121:D 0.000143665
5 *1120:C 3.59517e-05
6 *1132:A2 0
7 *1119:X 0.000207674
8 *137:48 0.000245704
9 *137:37 0.000140609
10 *137:26 0.000288266
11 *137:20 0.000948509
12 *137:10 0.000953173
13 *1120:C *264:58 1.98839e-05
14 *1120:C *352:25 6.56534e-05
15 *1121:D *1121:C 5.52302e-05
16 *1121:D *242:18 0.00012401
17 *1121:D *351:43 6.03429e-05
18 *1134:A2 *264:58 0.000259934
19 *1134:A2 *352:38 9.60939e-05
20 *137:10 *1136:A1 5.33334e-05
21 *137:10 *1136:B1 5.71472e-05
22 *137:10 *1137:B 9.90431e-05
23 *137:20 *1135:A1 5.76121e-05
24 *137:20 *1136:B1 0.000144804
25 *137:20 *1288:CLK 7.82051e-05
26 *137:20 *242:24 0.000128518
27 *137:26 *1133:C 0
28 *137:26 *1135:A1 0
29 *137:26 *242:24 0.000101111
30 *137:26 *352:10 3.93974e-05
31 *137:37 *1132:A1 0.00015234
32 *137:37 *242:18 6.48006e-05
33 *137:37 *242:24 2.19684e-05
34 *137:37 *351:43 8.25098e-05
35 *137:37 *352:10 5.90443e-06
36 *137:48 *264:58 9.90431e-05
37 *137:48 *352:25 1.5424e-05
38 *137:48 *352:38 5.52238e-05
39 *1136:A2 *137:20 0
40 *1139:A_N *137:10 3.48705e-05
41 *1287:D *137:20 4.87669e-06
42 *136:10 *137:20 0
*RES
1 *1119:X *137:10 13.675 
2 *137:10 *137:20 20.0179 
3 *137:20 *137:26 8.92857 
4 *137:26 *1132:A2 13.8 
5 *137:26 *137:37 7.66071 
6 *137:37 *1120:C 10.2643 
7 *137:37 *137:48 0.946429 
8 *137:48 *1121:D 20.8893 
9 *137:48 *1134:A2 11.8893 
10 *137:20 *1135:A2 9.3 
11 *137:10 *1137:A 9.3 
*END

*D_NET *138 0.00161303
*CONN
*I *1130:A2 I *D sky130_fd_sc_hd__o21ai_2
*I *1133:A_N I *D sky130_fd_sc_hd__and3b_2
*I *1120:X O *D sky130_fd_sc_hd__and3_2
*CAP
1 *1130:A2 0.000158815
2 *1133:A_N 0.000266949
3 *1120:X 0.00010265
4 *138:8 0.000528414
5 *1130:A2 *1121:C 0
6 *1130:A2 *1133:B 0
7 *1130:A2 *264:39 0
8 *1130:A2 *264:41 0
9 *1130:A2 *351:43 0
10 *1130:A2 *352:25 4.89268e-05
11 *1133:A_N *1133:B 0
12 *1133:A_N *1133:C 0.000373955
13 *1133:A_N *352:10 1.00375e-05
14 *1133:A_N *352:25 4.8476e-05
15 *138:8 *264:58 7.48091e-05
*RES
1 *1120:X *138:8 15.1571 
2 *138:8 *1133:A_N 20.6036 
3 *138:8 *1130:A2 16.9607 
*END

*D_NET *139 0.00281021
*CONN
*I *1131:A I *D sky130_fd_sc_hd__nor2_2
*I *1126:A3 I *D sky130_fd_sc_hd__a31o_2
*I *1122:B I *D sky130_fd_sc_hd__nand2_2
*I *1128:B I *D sky130_fd_sc_hd__or2_2
*I *1121:X O *D sky130_fd_sc_hd__and4_2
*CAP
1 *1131:A 0
2 *1126:A3 0
3 *1122:B 0.000176627
4 *1128:B 3.09987e-05
5 *1121:X 0.000196702
6 *139:22 0.00042162
7 *139:16 0.000428672
8 *139:12 0.00041138
9 *1122:B *1122:A 0.00014285
10 *1122:B *1127:A2 0
11 *1122:B *1129:A 0.00014285
12 *1122:B *1129:C 6.26466e-05
13 *1122:B *264:33 0
14 *1122:B *342:19 2.53112e-06
15 *1128:B *1330:CLK 2.85234e-05
16 *139:12 *1088:A 5.49995e-05
17 *139:12 *1088:C 4.27842e-06
18 *139:12 *1121:C 7.89362e-05
19 *139:12 *1131:B 0.000105632
20 *139:16 *1088:A 0.000156453
21 *139:16 *1126:A2 4.34677e-05
22 *139:22 *1126:A1 1.95368e-05
23 *139:22 *1126:A2 5.66971e-05
24 *139:22 *1282:CLK 7.07427e-05
25 *139:22 *342:19 5.20919e-05
26 *139:22 *342:21 4.40513e-06
27 *1381:A *139:16 2.11336e-05
28 *1381:A *139:22 9.64346e-05
*RES
1 *1121:X *139:12 22.9071 
2 *139:12 *139:16 4.25 
3 *139:16 *139:22 10.0179 
4 *139:22 *1128:B 14.3357 
5 *139:22 *1122:B 18.3179 
6 *139:16 *1126:A3 9.3 
7 *139:12 *1131:A 9.3 
*END

*D_NET *140 0.00196221
*CONN
*I *1129:A I *D sky130_fd_sc_hd__and3_2
*I *1127:A2 I *D sky130_fd_sc_hd__a21oi_2
*I *1122:Y O *D sky130_fd_sc_hd__nand2_2
*CAP
1 *1129:A 0.000178201
2 *1127:A2 0.00055434
3 *1122:Y 0.000732541
4 *1127:A2 *1126:A2 1.58559e-05
5 *1129:A *1122:A 7.17235e-05
6 *1122:B *1127:A2 0
7 *1122:B *1129:A 0.00014285
8 *1127:A1 *1127:A2 0.000209998
9 *1381:A *1127:A2 5.66971e-05
*RES
1 *1122:Y *1127:A2 37.4214 
2 *1122:Y *1129:A 22.0107 
*END

*D_NET *141 0.000915529
*CONN
*I *1187:B I *D sky130_fd_sc_hd__or2_2
*I *1124:A2 I *D sky130_fd_sc_hd__o21a_2
*I *1123:X O *D sky130_fd_sc_hd__or2_2
*CAP
1 *1187:B 5.80201e-05
2 *1124:A2 0
3 *1123:X 0.000182037
4 *141:12 0.000240057
5 *1187:B *1187:A 9.72029e-05
6 *1187:B *142:12 4.87953e-05
7 *141:12 *1146:A3 0.000188586
8 *141:12 *1150:A1 0
9 *141:12 *1150:A2 0.000100831
10 *1295:D *141:12 0
*RES
1 *1123:X *141:12 21.4071 
2 *141:12 *1124:A2 9.3 
3 *141:12 *1187:B 11.1036 
*END

*D_NET *142 0.00539057
*CONN
*I *1151:D1 I *D sky130_fd_sc_hd__o2111a_2
*I *1147:A I *D sky130_fd_sc_hd__and2_2
*I *1150:B1 I *D sky130_fd_sc_hd__o311a_2
*I *1364:A I *D sky130_fd_sc_hd__clkdlybuf4s25_1
*I *1124:X O *D sky130_fd_sc_hd__o21a_2
*CAP
1 *1151:D1 5.42691e-05
2 *1147:A 0.000388003
3 *1150:B1 8.91158e-06
4 *1364:A 0.00019891
5 *1124:X 0.000412248
6 *142:38 0.000838088
7 *142:16 0.000516013
8 *142:12 0.00111625
9 *1147:A *1146:B2 2.89016e-05
10 *1147:A *243:71 0.00021158
11 *1150:B1 *1150:A2 3.57366e-05
12 *1151:D1 *243:71 6.74911e-05
13 *1364:A *1123:A 4.28077e-05
14 *1364:A *1150:A2 1.74352e-05
15 *1364:A *370:26 2.89016e-05
16 *142:12 *1146:A3 5.7234e-05
17 *142:12 *1150:A2 8.78746e-05
18 *142:12 *1187:A 0.000175508
19 *142:12 *344:14 0
20 *142:16 *1150:A2 0.000293932
21 *142:16 *1150:C1 3.97657e-05
22 *142:38 *1100:B 5.33005e-05
23 *142:38 *1113:A 4.13595e-05
24 *142:38 *1150:C1 4.79969e-05
25 *1145:A *1147:A 5.71472e-05
26 *1148:A *1147:A 0.000181368
27 *1148:B *142:38 0.000181796
28 *1150:A3 *1364:A 9.76689e-05
29 *1151:B1 *1147:A 2.1527e-05
30 *1151:B1 *1151:D1 3.9745e-05
31 *1187:B *142:12 4.87953e-05
*RES
1 *1124:X *142:12 25.175 
2 *142:12 *142:16 4.66071 
3 *142:16 *1364:A 13.2643 
4 *142:16 *1150:B1 9.72857 
5 *142:12 *142:38 9.55357 
6 *142:38 *1147:A 22.5143 
7 *142:38 *1151:D1 15.4429 
*END

*D_NET *143 0.000306081
*CONN
*I *1126:B1 I *D sky130_fd_sc_hd__a31o_2
*I *1125:Y O *D sky130_fd_sc_hd__inv_2
*CAP
1 *1126:B1 7.61826e-05
2 *1125:Y 7.61826e-05
3 *1126:B1 *1131:B 3.67279e-06
4 *1126:B1 *264:39 0.000150043
*RES
1 *1125:Y *1126:B1 29.5464 
*END

*D_NET *144 0.000441075
*CONN
*I *1127:B1 I *D sky130_fd_sc_hd__a21oi_2
*I *1126:X O *D sky130_fd_sc_hd__a31o_2
*CAP
1 *1127:B1 9.05825e-05
2 *1126:X 9.05825e-05
3 *1127:B1 *1126:A2 7.2266e-05
4 *1127:A1 *1127:B1 0.000100165
5 *1381:A *1127:B1 8.74791e-05
*RES
1 *1126:X *1127:B1 21.1893 
*END

*D_NET *145 0.00038035
*CONN
*I *1129:C I *D sky130_fd_sc_hd__and3_2
*I *1128:X O *D sky130_fd_sc_hd__or2_2
*CAP
1 *1129:C 0.000107226
2 *1128:X 0.000107226
3 *1129:C *1122:A 0
4 *1129:C *264:33 0.000103253
5 *1122:B *1129:C 6.26466e-05
6 *124:30 *1129:C 0
*RES
1 *1128:X *1129:C 30.1536 
*END

*D_NET *146 0.000699069
*CONN
*I *1131:B I *D sky130_fd_sc_hd__nor2_2
*I *1130:Y O *D sky130_fd_sc_hd__o21ai_2
*CAP
1 *1131:B 0.000243993
2 *1130:Y 0.000243993
3 *1131:B *1121:C 0
4 *1131:B *264:39 0
5 *1126:B1 *1131:B 3.67279e-06
6 *1284:D *1131:B 0.000101777
7 *139:12 *1131:B 0.000105632
*RES
1 *1130:Y *1131:B 32.9214 
*END

*D_NET *147 0.00117828
*CONN
*I *1133:C I *D sky130_fd_sc_hd__and3b_2
*I *1132:X O *D sky130_fd_sc_hd__a21o_2
*CAP
1 *1133:C 0.000374313
2 *1132:X 0.000374313
3 *1133:C *352:10 5.56943e-05
4 *1133:A_N *1133:C 0.000373955
5 *137:26 *1133:C 0
*RES
1 *1132:X *1133:C 35.1045 
*END

*D_NET *148 0.000635198
*CONN
*I *1135:B1 I *D sky130_fd_sc_hd__a21oi_2
*I *1134:Y O *D sky130_fd_sc_hd__o21ai_2
*CAP
1 *1135:B1 0.000157584
2 *1134:Y 0.000157584
3 *1135:B1 *1135:A1 0.000320031
4 *1135:B1 *351:8 0
5 *1287:D *1135:B1 0
*RES
1 *1134:Y *1135:B1 31.6714 
*END

*D_NET *149 0.000345982
*CONN
*I *1137:B I *D sky130_fd_sc_hd__nor2_2
*I *1136:Y O *D sky130_fd_sc_hd__o21ai_2
*CAP
1 *1137:B 0.000112732
2 *1136:Y 0.000112732
3 *1137:B *1136:B1 2.14757e-05
4 *137:10 *1137:B 9.90431e-05
*RES
1 *1136:Y *1137:B 20.7964 
*END

*D_NET *150 0.000899348
*CONN
*I *1139:C I *D sky130_fd_sc_hd__and3b_2
*I *1138:X O *D sky130_fd_sc_hd__a21o_2
*CAP
1 *1139:C 0.000321121
2 *1138:X 0.000321121
3 *1139:C *1119:A 0
4 *1139:C *1139:B 0
5 *1139:C *349:12 0.000101545
6 *1288:D *1139:C 0.000155561
*RES
1 *1138:X *1139:C 33.8589 
*END

*D_NET *151 0.000630526
*CONN
*I *1141:B1 I *D sky130_fd_sc_hd__a21oi_2
*I *1140:Y O *D sky130_fd_sc_hd__o21ai_2
*CAP
1 *1141:B1 0.000143644
2 *1140:Y 0.000143644
3 *1141:B1 *1140:A1 0.000156054
4 *1141:B1 *1140:B1 8.63615e-05
5 *1141:B1 *1374:A 0
6 *1289:D *1141:B1 0.000100823
*RES
1 *1140:Y *1141:B1 31.975 
*END

*D_NET *152 0.00117131
*CONN
*I *1143:B I *D sky130_fd_sc_hd__nor2_2
*I *1142:Y O *D sky130_fd_sc_hd__o21ai_2
*CAP
1 *1143:B 0.000415808
2 *1142:Y 0.000415808
3 *1143:B *1142:A1 0.000125731
4 *1143:B *1142:B1 5.80706e-06
5 *1143:B *1289:CLK 0
6 *1102:D *1143:B 2.53112e-06
7 *1142:A2 *1143:B 5.52238e-05
8 *1143:A *1143:B 5.50052e-05
9 *1290:D *1143:B 6.35274e-05
10 *133:10 *1143:B 0
11 *134:8 *1143:B 3.18676e-05
12 *134:12 *1143:B 0
*RES
1 *1142:Y *1143:B 35.7786 
*END

*D_NET *153 0.000659471
*CONN
*I *1145:B I *D sky130_fd_sc_hd__nor2_2
*I *1144:Y O *D sky130_fd_sc_hd__nor2_2
*CAP
1 *1145:B 0.000156535
2 *1144:Y 0.000156535
3 *1145:B *1146:B2 8.72388e-05
4 *1145:B *1147:B 0
5 *1145:B *243:71 0.000179656
6 *1145:B *346:8 5.49995e-05
7 *1144:B *1145:B 2.45065e-05
*RES
1 *1144:Y *1145:B 31.6 
*END

*D_NET *154 0.000699605
*CONN
*I *1146:B2 I *D sky130_fd_sc_hd__a32o_2
*I *1145:Y O *D sky130_fd_sc_hd__nor2_2
*CAP
1 *1146:B2 0.000232628
2 *1145:Y 0.000232628
3 *1146:B2 *1147:B 0.000118207
4 *1145:B *1146:B2 8.72388e-05
5 *1147:A *1146:B2 2.89016e-05
*RES
1 *1145:Y *1146:B2 33.0464 
*END

*D_NET *155 0.000576477
*CONN
*I *1147:B I *D sky130_fd_sc_hd__and2_2
*I *1146:X O *D sky130_fd_sc_hd__a32o_2
*CAP
1 *1147:B 0.00018849
2 *1146:X 0.00018849
3 *1145:B *1147:B 0
4 *1146:B2 *1147:B 0.000118207
5 *1291:D *1147:B 8.12904e-05
*RES
1 *1146:X *1147:B 32.2786 
*END

*D_NET *156 0.000353743
*CONN
*I *1149:B I *D sky130_fd_sc_hd__nor2_2
*I *1148:X O *D sky130_fd_sc_hd__and2_2
*CAP
1 *1149:B 0.00014125
2 *1148:X 0.00014125
3 *1149:B *1150:C1 5.33978e-05
4 *1149:B *243:71 1.78447e-05
*RES
1 *1148:X *1149:B 30.0821 
*END

*D_NET *157 0.00211111
*CONN
*I *1150:C1 I *D sky130_fd_sc_hd__o311a_2
*I *1149:Y O *D sky130_fd_sc_hd__nor2_2
*CAP
1 *1150:C1 0.000682217
2 *1149:Y 0.000682217
3 *1150:C1 *1100:B 1.58163e-05
4 *1150:C1 *1113:A 4.27437e-05
5 *1150:C1 *1113:B 1.98839e-05
6 *1150:C1 *1150:A2 0.000153533
7 *1150:C1 *243:71 0.000128154
8 *1148:A *1150:C1 0.000181803
9 *1148:B *1150:C1 1.02821e-05
10 *1149:B *1150:C1 5.33978e-05
11 *122:10 *1150:C1 5.33005e-05
12 *142:16 *1150:C1 3.97657e-05
13 *142:38 *1150:C1 4.79969e-05
*RES
1 *1149:Y *1150:C1 40.4929 
*END

*D_NET *158 0.0173522
*CONN
*I *1164:B I *D sky130_fd_sc_hd__or2_2
*I *1162:B I *D sky130_fd_sc_hd__or2_2
*I *1170:B I *D sky130_fd_sc_hd__or2_2
*I *1160:B I *D sky130_fd_sc_hd__or2_2
*I *1158:B I *D sky130_fd_sc_hd__or2_2
*I *1168:B I *D sky130_fd_sc_hd__or2_2
*I *1166:B I *D sky130_fd_sc_hd__or2_2
*I *1156:B I *D sky130_fd_sc_hd__or2_2
*I *1154:X O *D sky130_fd_sc_hd__and3_2
*CAP
1 *1164:B 0
2 *1162:B 0.000126127
3 *1170:B 2.23854e-05
4 *1160:B 0
5 *1158:B 2.23854e-05
6 *1168:B 0.000290575
7 *1166:B 0.00027092
8 *1156:B 0
9 *1154:X 0.000864124
10 *158:67 0.000738842
11 *158:63 0.00103446
12 *158:53 0.00175821
13 *158:43 0.00161092
14 *158:31 0.0011098
15 *158:27 0.00101008
16 *158:16 0.00155558
17 *1162:B *1162:A 0.000202842
18 *1162:B *1163:B1 1.33343e-05
19 *1162:B *1389:A 5.29648e-05
20 *1162:B *159:91 0
21 *1166:B *1159:C1 0.000243627
22 *1166:B *1166:A 0.000135028
23 *1166:B *1167:B1 5.33005e-05
24 *1166:B *1192:B1_N 0.000347339
25 *1166:B *1449:A 0.000126172
26 *1166:B *159:38 2.00751e-05
27 *1166:B *268:23 0.00039299
28 *1168:B *1168:A 0.00010096
29 *1168:B *1204:A1 7.252e-05
30 *1168:B *1312:CLK 0.000179018
31 *1168:B *1382:A 0
32 *1168:B *1449:A 9.42978e-05
33 *1168:B *159:38 1.9643e-05
34 *1168:B *172:27 6.19181e-05
35 *158:16 *1068:A 0.000137983
36 *158:16 *1156:A 3.48705e-05
37 *158:16 *1157:B1 2.27416e-05
38 *158:16 *1190:B 0.00014285
39 *158:16 *1190:C 9.9307e-05
40 *158:16 *1190:D 0.000498064
41 *158:27 *1156:A 5.71472e-05
42 *158:27 *1157:A2 0
43 *158:27 *1157:B1 0
44 *158:27 *1165:B1 7.80714e-06
45 *158:27 *1186:A 0
46 *158:27 *1389:A 0
47 *158:27 *1391:A 0.000129868
48 *158:27 *1393:A 9.59415e-05
49 *158:27 *1444:A 0.000115575
50 *158:27 *255:10 0
51 *158:31 *1162:A 5.66157e-05
52 *158:31 *1163:C1 4.33438e-05
53 *158:31 *1164:A 3.79467e-05
54 *158:31 *1165:B1 0.00014535
55 *158:31 *1389:A 5.21676e-05
56 *158:31 *1392:A 0.000127446
57 *158:31 *255:10 0
58 *158:43 *1163:A1 4.46186e-06
59 *158:43 *1197:B1 0.000177821
60 *158:43 *1299:CLK 5.52302e-05
61 *158:43 *1299:D 0.000355722
62 *158:43 *1447:A 0.000124475
63 *158:43 *291:12 1.54142e-05
64 *158:53 *1160:A 5.33005e-05
65 *158:53 *1171:B1 0.000205829
66 *158:53 *1206:B1_N 0
67 *158:53 *1298:D 6.62868e-05
68 *158:53 *247:19 0
69 *158:53 *247:64 0.000228558
70 *158:63 *1160:A 5.33005e-05
71 *158:63 *1194:A1 4.90803e-05
72 *158:63 *1194:B1_N 0
73 *158:63 *1207:C1 0.000338351
74 *158:63 *1387:A 0.000338344
75 *158:63 *172:17 7.6644e-05
76 *158:63 *247:19 0
77 *158:67 *1158:A 3.81226e-05
78 *158:67 *1159:B1 1.56e-05
79 *158:67 *1159:C1 6.05161e-06
80 rx_data[4] *158:31 0
81 *1097:A *158:16 5.54547e-05
82 *1196:A1 *158:43 2.89114e-05
83 *1296:D *158:27 0.000250303
84 *1312:D *1168:B 9.4736e-05
85 *1317:D *158:53 0.000150624
86 *1388:A *158:53 0.00012747
87 *1388:A *158:63 5.33005e-05
88 *93:12 *158:16 5.33005e-05
*RES
1 *1154:X *158:16 25.2286 
2 *158:16 *1156:B 9.3 
3 *158:16 *158:27 20.9643 
4 *158:27 *158:31 7.64286 
5 *158:31 *158:43 23.9286 
6 *158:43 *158:53 24.625 
7 *158:53 *158:63 23.8214 
8 *158:63 *158:67 6.67857 
9 *158:67 *1166:B 23.7821 
10 *158:67 *1168:B 21.3536 
11 *158:63 *1158:B 9.72857 
12 *158:53 *1160:B 9.3 
13 *158:43 *1170:B 9.72857 
14 *158:31 *1162:B 17.3179 
15 *158:27 *1164:B 13.8 
*END

*D_NET *159 0.0180424
*CONN
*I *1163:A2 I *D sky130_fd_sc_hd__o211a_2
*I *1165:A2 I *D sky130_fd_sc_hd__o211a_2
*I *1157:A2 I *D sky130_fd_sc_hd__o211a_2
*I *1171:A2 I *D sky130_fd_sc_hd__o211a_2
*I *1161:A2 I *D sky130_fd_sc_hd__o211a_2
*I *1169:A2 I *D sky130_fd_sc_hd__o211a_2
*I *1159:A2 I *D sky130_fd_sc_hd__o211a_2
*I *1167:A2 I *D sky130_fd_sc_hd__o211a_2
*I *1155:Y O *D sky130_fd_sc_hd__nand3_2
*CAP
1 *1163:A2 9.87317e-05
2 *1165:A2 6.94611e-05
3 *1157:A2 0.000263311
4 *1171:A2 2.41351e-05
5 *1161:A2 0
6 *1169:A2 0.000460829
7 *1159:A2 0
8 *1167:A2 0
9 *1155:Y 0.00088274
10 *159:91 0.000560665
11 *159:89 0.00085183
12 *159:76 0.00101897
13 *159:59 0.00102072
14 *159:38 0.00121358
15 *159:27 0.000535651
16 *159:10 0.00121673
17 *1157:A2 *1157:B1 4.46186e-06
18 *1157:A2 *1389:A 0.000706214
19 *1163:A2 *1163:A1 8.28514e-05
20 *1165:A2 *1165:A1 3.99614e-06
21 *1165:A2 *1165:C1 3.99614e-06
22 *1165:A2 *269:66 2.59355e-05
23 *1169:A2 *1204:B1_N 0.000230482
24 *1169:A2 *1205:B1 4.88637e-05
25 *1169:A2 *1382:A 0.00010096
26 *1169:A2 *185:66 3.72932e-05
27 *1169:A2 *268:46 8.15939e-05
28 *1171:A2 *1171:A1 2.23354e-06
29 *1171:A2 *1171:B1 1.04232e-05
30 *159:10 *1167:B1 1.02504e-05
31 *159:10 *1193:A1 0
32 *159:10 *1203:A3 5.71472e-05
33 *159:10 *1315:CLK 7.77652e-05
34 *159:10 *1347:CLK 0
35 *159:10 *1367:A 0.000250193
36 *159:10 *246:56 0.000165377
37 *159:10 *266:81 0
38 *159:10 *266:90 0
39 *159:10 *266:102 0.000223558
40 *159:10 *266:117 0.000256992
41 *159:27 *1159:C1 0.000155088
42 *159:27 *1167:B1 0.000384988
43 *159:27 *1367:A 0.00082606
44 *159:27 *1378:A 0.000123288
45 *159:27 *268:23 0.000258859
46 *159:38 *1159:C1 5.80706e-06
47 *159:38 *1204:A1 0.000141368
48 *159:38 *1204:A2 3.20153e-05
49 *159:38 *1205:A3 3.0285e-05
50 *159:38 *1205:B1 0
51 *159:38 *1312:CLK 2.26327e-05
52 *159:38 *1367:A 0.000164554
53 *159:38 *172:27 0.000125724
54 *159:59 *1194:B1_N 0.000342488
55 *159:59 *185:66 4.97765e-05
56 *159:59 *269:129 0.000344917
57 *159:76 *1171:B1 1.40306e-05
58 *159:76 *1171:C1 0.000253422
59 *159:76 *1194:B1_N 1.02504e-05
60 *159:76 *1446:A 0.000405733
61 *159:76 *1449:A 0
62 *159:76 *289:10 0.000263604
63 *159:89 *1163:A1 0.000172536
64 *159:89 *1171:A1 2.97057e-05
65 *159:89 *1451:A 4.88637e-05
66 *159:89 *287:6 1.00073e-05
67 *159:91 *1162:A 0
68 *159:91 *1163:B1 0
69 *159:91 *1163:C1 0
70 *159:91 *1389:A 0.000359387
71 rx_data[2] *159:76 8.07313e-05
72 rx_data[5] *159:76 5.52302e-05
73 rx_data[7] *159:89 0.00071434
74 *1162:B *159:91 0
75 *1166:B *159:38 2.00751e-05
76 *1168:B *159:38 1.9643e-05
77 *1300:D *1157:A2 0.000158502
78 *1312:D *159:59 1.64343e-05
79 *1315:D *159:10 3.14193e-05
80 *1316:D *1169:A2 0.000230475
81 *1386:A *159:89 0.000845778
82 *1390:A *1157:A2 0.000128161
83 *1390:A *159:91 0.000568323
84 *119:50 *1157:A2 0
85 *158:27 *1157:A2 0
*RES
1 *1155:Y *159:10 27.3536 
2 *159:10 *1167:A2 13.8 
3 *159:10 *159:27 13.8929 
4 *159:27 *1159:A2 13.8 
5 *159:27 *159:38 10.0893 
6 *159:38 *1169:A2 28.1929 
7 *159:38 *159:59 13.9286 
8 *159:59 *1161:A2 13.8 
9 *159:59 *159:76 17.1786 
10 *159:76 *1171:A2 10.0321 
11 *159:76 *159:89 19.625 
12 *159:89 *159:91 7.41071 
13 *159:91 *1157:A2 23.0321 
14 *159:91 *1165:A2 15.1929 
15 *159:89 *1163:A2 15.5857 
*END

*D_NET *160 0.00161526
*CONN
*I *1157:B1 I *D sky130_fd_sc_hd__o211a_2
*I *1156:X O *D sky130_fd_sc_hd__or2_2
*CAP
1 *1157:B1 0.000412301
2 *1156:X 0.000412301
3 *1157:B1 *1157:A1 0.00025664
4 *1157:B1 *1157:C1 3.67356e-05
5 *1157:B1 *1186:A 6.74911e-05
6 *1157:B1 *1191:A1 0.000347354
7 *1157:B1 *1389:A 5.52302e-05
8 *1157:A2 *1157:B1 4.46186e-06
9 *1296:D *1157:B1 0
10 *158:16 *1157:B1 2.27416e-05
11 *158:27 *1157:B1 0
*RES
1 *1156:X *1157:B1 38.2071 
*END

*D_NET *161 0.000340811
*CONN
*I *1159:B1 I *D sky130_fd_sc_hd__o211a_2
*I *1158:X O *D sky130_fd_sc_hd__or2_2
*CAP
1 *1159:B1 6.65149e-05
2 *1158:X 6.65149e-05
3 *1159:B1 *1158:A 0.000138881
4 *1159:B1 *1159:C1 5.33005e-05
5 *158:67 *1159:B1 1.56e-05
*RES
1 *1158:X *1159:B1 20.3857 
*END

*D_NET *162 0.00044628
*CONN
*I *1161:B1 I *D sky130_fd_sc_hd__o211a_2
*I *1160:X O *D sky130_fd_sc_hd__or2_2
*CAP
1 *1161:B1 0.000200766
2 *1160:X 0.000200766
3 *1161:B1 *1161:A1 1.28809e-05
4 *1388:A *1161:B1 3.18676e-05
*RES
1 *1160:X *1161:B1 21.6179 
*END

*D_NET *163 0.000480991
*CONN
*I *1163:B1 I *D sky130_fd_sc_hd__o211a_2
*I *1162:X O *D sky130_fd_sc_hd__or2_2
*CAP
1 *1163:B1 0.000193026
2 *1162:X 0.000193026
3 *1163:B1 *1163:C1 8.16036e-05
4 *1162:B *1163:B1 1.33343e-05
5 *159:91 *1163:B1 0
*RES
1 *1162:X *1163:B1 30.9036 
*END

*D_NET *164 0.00131232
*CONN
*I *1165:B1 I *D sky130_fd_sc_hd__o211a_2
*I *1164:X O *D sky130_fd_sc_hd__or2_2
*CAP
1 *1165:B1 0.00030762
2 *1164:X 0.00030762
3 *1165:B1 *1389:A 0.000416477
4 *1165:B1 *1392:A 0.000127446
5 *158:27 *1165:B1 7.80714e-06
6 *158:31 *1165:B1 0.00014535
*RES
1 *1164:X *1165:B1 35.8857 
*END

*D_NET *165 0.00123992
*CONN
*I *1167:B1 I *D sky130_fd_sc_hd__o211a_2
*I *1166:X O *D sky130_fd_sc_hd__or2_2
*CAP
1 *1167:B1 0.000257514
2 *1166:X 0.000257514
3 *1167:B1 *1166:A 4.27338e-05
4 *1167:B1 *1167:C1 8.15843e-05
5 *1167:B1 *268:23 0.000152039
6 *1166:B *1167:B1 5.33005e-05
7 *159:10 *1167:B1 1.02504e-05
8 *159:27 *1167:B1 0.000384988
*RES
1 *1166:X *1167:B1 34.7607 
*END

*D_NET *166 0.00103143
*CONN
*I *1169:B1 I *D sky130_fd_sc_hd__o211a_2
*I *1168:X O *D sky130_fd_sc_hd__or2_2
*CAP
1 *1169:B1 0.000392019
2 *1168:X 0.000392019
3 *1169:B1 *1169:A1 0.000172394
4 *1169:B1 *1204:B1_N 5.52238e-05
5 *1169:B1 *268:50 1.97695e-05
*RES
1 *1168:X *1169:B1 25.3143 
*END

*D_NET *167 0.00144104
*CONN
*I *1171:B1 I *D sky130_fd_sc_hd__o211a_2
*I *1170:X O *D sky130_fd_sc_hd__or2_2
*CAP
1 *1171:B1 0.000503161
2 *1170:X 0.000503161
3 *1171:B1 *1171:A1 2.80068e-05
4 *1171:B1 *1171:C1 1.97695e-05
5 *1171:B1 *1206:B1_N 9.78414e-05
6 *1171:B1 *1385:A 5.62995e-05
7 *1171:A2 *1171:B1 1.04232e-05
8 *1317:D *1171:B1 2.51343e-06
9 *158:53 *1171:B1 0.000205829
10 *159:76 *1171:B1 1.40306e-05
*RES
1 *1170:X *1171:B1 38.0821 
*END

*D_NET *168 0.000809949
*CONN
*I *1175:B1 I *D sky130_fd_sc_hd__a21o_2
*I *1174:Y O *D sky130_fd_sc_hd__a21oi_2
*CAP
1 *1175:B1 0.000169031
2 *1174:Y 0.000169031
3 *1175:B1 *1184:A2 4.18895e-05
4 *1175:B1 *169:14 5.52302e-05
5 *1175:B1 *170:8 2.40261e-05
6 *1175:B1 *170:12 5.97767e-05
7 *1175:B1 *239:122 6.90367e-05
8 *1175:B1 *239:153 4.2884e-05
9 *1175:B1 *271:19 9.90367e-05
10 *1176:A2 *1175:B1 2.28598e-05
11 *127:23 *1175:B1 5.71472e-05
*RES
1 *1174:Y *1175:B1 32.475 
*END

*D_NET *169 0.00590324
*CONN
*I *1184:A2 I *D sky130_fd_sc_hd__a22o_2
*I *1182:A2 I *D sky130_fd_sc_hd__a22o_2
*I *1177:B I *D sky130_fd_sc_hd__or2_2
*I *1175:X O *D sky130_fd_sc_hd__a21o_2
*CAP
1 *1184:A2 0.000887002
2 *1182:A2 0.000189527
3 *1177:B 0
4 *1175:X 0.000359015
5 *169:18 0.000431479
6 *169:14 0.00148797
7 *1182:A2 *1178:A1 2.16719e-05
8 *1182:A2 *1178:B1 0.000153047
9 *1182:A2 *1182:B1 0.000166976
10 *1182:A2 *1369:A 0
11 *1182:A2 *170:12 0.000175519
12 *1182:A2 *179:39 1.50923e-05
13 *1182:A2 *271:76 2.09495e-05
14 *1182:A2 *354:20 3.046e-05
15 *1182:A2 *354:28 4.78056e-05
16 *1184:A2 *1175:A1 0.000307154
17 *1184:A2 *1184:B1 9.21719e-05
18 *1184:A2 *1188:C1 0.000217533
19 *1184:A2 *239:153 1.90111e-05
20 *1184:A2 *355:16 3.64323e-05
21 *169:14 *170:12 0
22 *169:14 *239:110 8.36403e-05
23 *169:14 *239:122 2.94103e-05
24 *169:14 *239:153 7.38982e-05
25 *169:18 *1370:A 0
26 *169:18 *170:12 0.000497326
27 *169:18 *271:59 0.000168939
28 *169:18 *271:76 4.25716e-05
29 *169:18 *370:91 6.39997e-05
30 *1175:A2 *1184:A2 5.52238e-05
31 *1175:B1 *1184:A2 4.18895e-05
32 *1175:B1 *169:14 5.52302e-05
33 *117:16 *169:14 0.000132297
34 *117:16 *169:18 0
*RES
1 *1175:X *169:14 23.8893 
2 *169:14 *169:18 11 
3 *169:18 *1177:B 13.8 
4 *169:18 *1182:A2 19.0857 
5 *169:14 *1184:A2 21.8045 
*END

*D_NET *170 0.0054799
*CONN
*I *1184:B1 I *D sky130_fd_sc_hd__a22o_2
*I *1182:B1 I *D sky130_fd_sc_hd__a22o_2
*I *1178:A2 I *D sky130_fd_sc_hd__o211a_2
*I *1176:X O *D sky130_fd_sc_hd__o211a_2
*CAP
1 *1184:B1 0.000539795
2 *1182:B1 0.000252704
3 *1178:A2 7.83686e-05
4 *1176:X 0.000158367
5 *170:12 0.000753574
6 *170:8 0.00112066
7 *1178:A2 *1178:A1 2.04495e-05
8 *1182:B1 *1178:A1 7.6644e-05
9 *1182:B1 *179:39 1.15172e-05
10 *1182:B1 *239:153 2.94103e-05
11 *1182:B1 *246:46 0
12 *1182:B1 *354:20 0.000137983
13 *1184:B1 *1175:A1 0.000532305
14 *1184:B1 *1188:C1 8.07313e-05
15 *1184:B1 *239:153 1.76135e-05
16 *1184:B1 *271:45 0
17 *1184:B1 *355:16 3.57366e-05
18 *170:8 *1153:C 0
19 *170:8 *1420:A 7.22594e-05
20 *170:8 *239:122 0
21 *170:8 *368:67 4.78056e-05
22 *170:8 *370:18 0.000100823
23 *170:12 *239:153 0.000390492
24 *1175:B1 *170:8 2.40261e-05
25 *1175:B1 *170:12 5.97767e-05
26 *1176:A1 *170:8 6.8646e-06
27 *1182:A2 *1182:B1 0.000166976
28 *1182:A2 *170:12 0.000175519
29 *1184:A2 *1184:B1 9.21719e-05
30 *169:14 *170:12 0
31 *169:18 *170:12 0.000497326
*RES
1 *1176:X *170:8 17.4161 
2 *170:8 *170:12 10.8304 
3 *170:12 *1178:A2 15.0679 
4 *170:12 *1182:B1 18.2464 
5 *170:8 *1184:B1 25.2196 
*END

*D_NET *171 0.000527545
*CONN
*I *1178:B1 I *D sky130_fd_sc_hd__o211a_2
*I *1177:X O *D sky130_fd_sc_hd__or2_2
*CAP
1 *1178:B1 0.000120933
2 *1177:X 0.000120933
3 *1178:B1 *246:50 5.33433e-05
4 *1178:B1 *271:76 7.92879e-05
5 *1182:A2 *1178:B1 0.000153047
*RES
1 *1177:X *1178:B1 30.4929 
*END

*D_NET *172 0.00535909
*CONN
*I *1194:A1 I *D sky130_fd_sc_hd__o21bai_2
*I *1195:A2 I *D sky130_fd_sc_hd__o311a_2
*I *1204:A1 I *D sky130_fd_sc_hd__o21bai_2
*I *1205:A2 I *D sky130_fd_sc_hd__o311a_2
*I *1181:A I *D sky130_fd_sc_hd__nand2_2
*I *1179:Y O *D sky130_fd_sc_hd__nand2_2
*CAP
1 *1194:A1 2.47148e-05
2 *1195:A2 2.17867e-05
3 *1204:A1 5.17533e-05
4 *1205:A2 0.000351312
5 *1181:A 4.17151e-05
6 *1179:Y 0
7 *172:27 0.000669379
8 *172:21 0.000687287
9 *172:17 0.000676398
10 *172:6 0.000294211
11 *1181:A *1207:C1 0.00015234
12 *1194:A1 *247:10 0
13 *1195:A2 *1194:A2 3.57366e-05
14 *1195:A2 *267:17 3.57366e-05
15 *1204:A1 *1312:CLK 1.02504e-05
16 *1205:A2 *1205:A1 1.32552e-05
17 *1205:A2 *1205:A3 0.000271345
18 *1205:A2 *1205:C1 0.000152029
19 *172:17 *1207:C1 0.000329333
20 *172:17 *1369:A 8.33463e-05
21 *172:17 *247:10 0
22 *172:21 *1194:A2 0.000357945
23 *172:21 *267:31 5.30237e-05
24 *172:27 *267:17 0.000268409
25 *172:27 *267:31 1.32552e-05
26 *1168:B *1204:A1 7.252e-05
27 *1168:B *172:27 6.19181e-05
28 *1179:B *172:17 7.46814e-05
29 *94:10 *1181:A 0.00015234
30 *94:10 *172:17 1.02504e-05
31 *158:63 *1194:A1 4.90803e-05
32 *158:63 *172:17 7.6644e-05
33 *159:38 *1204:A1 0.000141368
34 *159:38 *172:27 0.000125724
*RES
1 *1179:Y *172:6 13.8 
2 *172:6 *1181:A 15.7464 
3 *172:6 *172:17 7.41071 
4 *172:17 *172:21 9.96429 
5 *172:21 *172:27 9.14286 
6 *172:27 *1205:A2 18.8714 
7 *172:27 *1204:A1 15.7464 
8 *172:21 *1195:A2 10.0321 
9 *172:17 *1194:A1 14.5321 
*END

*D_NET *173 0.00367129
*CONN
*I *1181:B I *D sky130_fd_sc_hd__nand2_2
*I *1192:A1 I *D sky130_fd_sc_hd__o21bai_2
*I *1193:A2 I *D sky130_fd_sc_hd__o311a_2
*I *1202:A1 I *D sky130_fd_sc_hd__o21bai_2
*I *1203:A2 I *D sky130_fd_sc_hd__o311a_2
*I *1180:X O *D sky130_fd_sc_hd__or2_2
*CAP
1 *1181:B 2.87843e-05
2 *1192:A1 0
3 *1193:A2 0.000338988
4 *1202:A1 0
5 *1203:A2 0.0001976
6 *1180:X 0
7 *173:38 0.000399764
8 *173:36 0.000140364
9 *173:12 0.00036659
10 *173:6 0.000219794
11 *1181:B *179:39 2.59355e-05
12 *1193:A2 *1193:B1 0.000138859
13 *1193:A2 *1193:C1 2.89016e-05
14 *1193:A2 *1207:C1 0
15 *1193:A2 *1308:CLK 0.000165254
16 *1193:A2 *179:39 5.33005e-05
17 *1193:A2 *179:45 0
18 *1193:A2 *179:60 0
19 *1193:A2 *246:76 0.000200413
20 *1193:A2 *269:97 7.77652e-05
21 *1203:A2 *1193:A1 0
22 *1203:A2 *1203:B1 5.33005e-05
23 *1203:A2 *246:56 0.000173505
24 *1203:A2 *266:102 0.000300111
25 *173:12 *1207:C1 1.31516e-05
26 *173:12 *1370:A 0.000118339
27 *173:12 *185:12 0.000122101
28 *173:12 *246:50 0.000140933
29 *173:12 *246:56 9.69119e-06
30 *173:12 *246:76 8.27403e-05
31 *173:36 *1179:A 0.000128154
32 *173:36 *1207:C1 1.41029e-05
33 *173:36 *246:76 5.16489e-05
34 *173:38 *179:39 8.11942e-05
*RES
1 *1180:X *173:6 13.8 
2 *173:6 *173:12 9.83929 
3 *173:12 *1203:A2 23.2643 
4 *173:12 *1202:A1 9.3 
5 *173:6 *173:36 6.44643 
6 *173:36 *173:38 1.35714 
7 *173:38 *1193:A2 26.3 
8 *173:38 *1192:A1 9.3 
9 *173:36 *1181:B 9.83571 
*END

*D_NET *174 8.41812e-05
*CONN
*I *1182:B2 I *D sky130_fd_sc_hd__a22o_2
*I *1181:Y O *D sky130_fd_sc_hd__nand2_2
*CAP
1 *1182:B2 2.76349e-05
2 *1181:Y 2.76349e-05
3 *1182:B2 *179:39 2.89114e-05
*RES
1 *1181:Y *1182:B2 19.1357 
*END

*D_NET *175 0.000466495
*CONN
*I *1183:B I *D sky130_fd_sc_hd__and2_2
*I *1182:X O *D sky130_fd_sc_hd__a22o_2
*CAP
1 *1183:B 0.000156463
2 *1182:X 0.000156463
3 *1183:B *1178:A1 5.26091e-05
4 *1183:B *1369:A 0
5 *1183:B *179:39 0.00010096
*RES
1 *1182:X *1183:B 30.4929 
*END

*D_NET *176 0.000546743
*CONN
*I *1186:B I *D sky130_fd_sc_hd__and3_2
*I *1184:X O *D sky130_fd_sc_hd__a22o_2
*CAP
1 *1186:B 0.000224361
2 *1184:X 0.000224361
3 *1186:B *1186:A 1.72894e-05
4 *1186:B *355:16 8.07313e-05
*RES
1 *1184:X *1186:B 21.6 
*END

*D_NET *177 0.000394072
*CONN
*I *1186:C I *D sky130_fd_sc_hd__and3_2
*I *1185:Y O *D sky130_fd_sc_hd__nand2_2
*CAP
1 *1186:C 0.000100132
2 *1185:Y 0.000100132
3 *1186:C *1186:A 0.00010326
4 *1186:C *1309:CLK 2.89016e-05
5 *1186:C *355:8 8.25843e-06
6 *1309:D *1186:C 5.33882e-05
*RES
1 *1185:Y *1186:C 29.8857 
*END

*D_NET *178 0.00137734
*CONN
*I *1188:B1 I *D sky130_fd_sc_hd__a211o_2
*I *1198:B1 I *D sky130_fd_sc_hd__a211o_2
*I *1187:X O *D sky130_fd_sc_hd__or2_2
*CAP
1 *1188:B1 4.33209e-05
2 *1198:B1 3.27116e-05
3 *1187:X 0.00036097
4 *178:10 0.000437003
5 *1198:B1 *1188:A1 1.32552e-05
6 *1198:B1 *1198:A1 5.04841e-06
7 *178:10 *1188:C1 0.00012222
8 *178:10 *344:14 5.80706e-06
9 *178:10 *368:93 0
10 *178:10 *368:108 0
11 *1098:B *1188:B1 8.17274e-05
12 *1098:B *1198:B1 0.00010911
13 *1184:B2 *178:10 1.41029e-05
14 *1198:C1 *1188:B1 9.179e-05
15 *1198:C1 *1198:B1 6.02722e-05
16 *116:29 *178:10 0
*RES
1 *1187:X *178:10 24.8 
2 *178:10 *1198:B1 10.675 
3 *178:10 *1188:B1 10.675 
*END

*D_NET *179 0.0111022
*CONN
*I *1189:C I *D sky130_fd_sc_hd__nor3_2
*I *1196:A2 I *D sky130_fd_sc_hd__o21bai_2
*I *1197:A3 I *D sky130_fd_sc_hd__o311a_2
*I *1192:A2 I *D sky130_fd_sc_hd__o21bai_2
*I *1195:A3 I *D sky130_fd_sc_hd__o311a_2
*I *1194:A2 I *D sky130_fd_sc_hd__o21bai_2
*I *1193:A3 I *D sky130_fd_sc_hd__o311a_2
*I *1190:D I *D sky130_fd_sc_hd__or4_2
*I *1188:X O *D sky130_fd_sc_hd__a211o_2
*CAP
1 *1189:C 0
2 *1196:A2 0.000121296
3 *1197:A3 6.47017e-05
4 *1192:A2 0
5 *1195:A3 0
6 *1194:A2 0.000105638
7 *1193:A3 0
8 *1190:D 0.000140044
9 *1188:X 8.38604e-05
10 *179:89 0.000669909
11 *179:60 0.000388391
12 *179:45 0.000480774
13 *179:39 0.00118982
14 *179:27 0.00150814
15 *179:25 0.000343299
16 *179:8 0.000534777
17 *1190:D *1190:A 0.000185643
18 *1190:D *1190:C 4.24918e-05
19 *1190:D *1191:B1 6.44345e-05
20 *1194:A2 *1195:B1 0.000103603
21 *1194:A2 *1195:C1 5.52302e-05
22 *1194:A2 *267:31 5.04589e-05
23 *1196:A2 *1197:B1 2.72449e-05
24 *1196:A2 *291:12 0.000218026
25 *1197:A3 *269:57 0.00014285
26 *179:25 *1190:A 0
27 *179:25 *1191:A2 0.000181368
28 *179:25 *1191:B1 3.84478e-05
29 *179:39 *1189:A 5.52302e-05
30 *179:39 *1189:B 9.31794e-05
31 *179:39 *1191:A2 1.39726e-05
32 *179:39 *246:38 0.000236814
33 *179:39 *354:20 0.000298982
34 *179:45 *1193:A1 0.000212851
35 *179:45 *1193:B1 0.000371533
36 *179:60 *1193:B1 1.02504e-05
37 *179:60 *1207:C1 0
38 *179:60 *1449:A 4.37485e-06
39 *179:60 *267:31 5.80706e-06
40 *179:60 *269:97 0.000311484
41 *179:89 *1201:A2 0.000257644
42 *179:89 *1300:CLK 0.000154762
43 *179:89 *291:12 0.00043274
44 *179:89 *354:75 0
45 *1097:A *1190:D 0.00014285
46 *1181:B *179:39 2.59355e-05
47 *1182:A2 *179:39 1.50923e-05
48 *1182:B1 *179:39 1.15172e-05
49 *1182:B2 *179:39 2.89114e-05
50 *1183:B *179:39 0.00010096
51 *1185:B *179:8 6.42242e-05
52 *1185:B *179:25 2.61337e-05
53 *1193:A2 *179:39 5.33005e-05
54 *1193:A2 *179:45 0
55 *1193:A2 *179:60 0
56 *1195:A2 *1194:A2 3.57366e-05
57 *1196:A1 *1196:A2 0
58 *1313:D *1196:A2 0.000123295
59 *119:10 *179:89 4.84947e-05
60 *119:50 *179:25 0.000288487
61 *119:50 *179:89 0
62 *120:8 *179:8 0
63 *158:16 *1190:D 0.000498064
64 *172:21 *1194:A2 0.000357945
65 *173:38 *179:39 8.11942e-05
*RES
1 *1188:X *179:8 15.4429 
2 *179:8 *1190:D 20.1036 
3 *179:8 *179:25 12.75 
4 *179:25 *179:27 0.535714 
5 *179:27 *179:39 19.3214 
6 *179:39 *179:45 10.8393 
7 *179:45 *1193:A3 13.8 
8 *179:45 *179:60 10.1429 
9 *179:60 *1194:A2 13.5679 
10 *179:60 *1195:A3 9.3 
11 *179:39 *1192:A2 9.3 
12 *179:27 *179:89 16.8214 
13 *179:89 *1197:A3 15.1571 
14 *179:89 *1196:A2 16.6571 
15 *179:25 *1189:C 9.3 
*END

*D_NET *180 0.000672095
*CONN
*I *1191:A2 I *D sky130_fd_sc_hd__o211a_2
*I *1189:Y O *D sky130_fd_sc_hd__nor3_2
*CAP
1 *1191:A2 0.000226585
2 *1189:Y 0.000226585
3 *1191:A2 *1189:B 1.33343e-05
4 *1191:A2 *1190:A 0
5 *1191:A2 *1191:B1 1.02504e-05
6 *179:25 *1191:A2 0.000181368
7 *179:39 *1191:A2 1.39726e-05
*RES
1 *1189:Y *1191:A2 32.5107 
*END

*D_NET *181 0.000727025
*CONN
*I *1191:B1 I *D sky130_fd_sc_hd__o211a_2
*I *1190:X O *D sky130_fd_sc_hd__or4_2
*CAP
1 *1191:B1 0.000278835
2 *1190:X 0.000278835
3 *1191:B1 *1190:A 4.87854e-05
4 *1097:A *1191:B1 7.43578e-06
5 *1190:D *1191:B1 6.44345e-05
6 *1191:A2 *1191:B1 1.02504e-05
7 *179:25 *1191:B1 3.84478e-05
*RES
1 *1190:X *1191:B1 31.8321 
*END

*D_NET *182 0.000746324
*CONN
*I *1193:B1 I *D sky130_fd_sc_hd__o311a_2
*I *1192:Y O *D sky130_fd_sc_hd__o21bai_2
*CAP
1 *1193:B1 0.00011284
2 *1192:Y 0.00011284
3 *1193:A2 *1193:B1 0.000138859
4 *179:45 *1193:B1 0.000371533
5 *179:60 *1193:B1 1.02504e-05
*RES
1 *1192:Y *1193:B1 32.2786 
*END

*D_NET *183 0.000517986
*CONN
*I *1195:B1 I *D sky130_fd_sc_hd__o311a_2
*I *1194:Y O *D sky130_fd_sc_hd__o21bai_2
*CAP
1 *1195:B1 6.63202e-05
2 *1194:Y 6.63202e-05
3 *1195:B1 *1195:C1 5.52302e-05
4 *1195:B1 *267:31 0.000226513
5 *1194:A2 *1195:B1 0.000103603
*RES
1 *1194:Y *1195:B1 21.2071 
*END

*D_NET *184 0.000733565
*CONN
*I *1197:B1 I *D sky130_fd_sc_hd__o311a_2
*I *1196:Y O *D sky130_fd_sc_hd__o21bai_2
*CAP
1 *1197:B1 0.000118571
2 *1196:Y 0.000118571
3 *1197:B1 *1299:CLK 5.96516e-05
4 *1197:B1 *291:12 5.52302e-05
5 *1196:A1 *1197:B1 7.73662e-05
6 *1196:A2 *1197:B1 2.72449e-05
7 *1313:D *1197:B1 9.91086e-05
8 *158:43 *1197:B1 0.000177821
*RES
1 *1196:Y *1197:B1 31.3143 
*END

*D_NET *185 0.0113315
*CONN
*I *1206:A2 I *D sky130_fd_sc_hd__o21bai_2
*I *1207:A3 I *D sky130_fd_sc_hd__o311a_2
*I *1204:A2 I *D sky130_fd_sc_hd__o21bai_2
*I *1205:A3 I *D sky130_fd_sc_hd__o311a_2
*I *1199:C I *D sky130_fd_sc_hd__nor3_2
*I *1200:D I *D sky130_fd_sc_hd__or4_2
*I *1202:A2 I *D sky130_fd_sc_hd__o21bai_2
*I *1203:A3 I *D sky130_fd_sc_hd__o311a_2
*I *1198:X O *D sky130_fd_sc_hd__a211o_2
*CAP
1 *1206:A2 4.50842e-05
2 *1207:A3 2.23854e-05
3 *1204:A2 4.02333e-05
4 *1205:A3 0.000126129
5 *1199:C 0.000117619
6 *1200:D 0
7 *1202:A2 5.32354e-05
8 *1203:A3 0.000223947
9 *1198:X 0.000173664
10 *185:66 0.00136531
11 *185:62 0.00155496
12 *185:58 0.000583883
13 *185:47 0.000440387
14 *185:38 0.000718829
15 *185:12 0.00129965
16 *185:8 0.00179736
17 *1199:C *247:98 7.77751e-05
18 *1202:A2 *1202:B1_N 0
19 *1203:A3 *1203:B1 0.000123295
20 *1203:A3 *1203:C1 2.61337e-05
21 *1203:A3 *246:56 5.52238e-05
22 *1203:A3 *266:81 1.69115e-05
23 *1204:A2 *1205:B1 0
24 *1205:A3 *1205:A1 5.04589e-05
25 *1205:A3 *1205:B1 0
26 *1205:A3 *1205:C1 8.07313e-05
27 *1206:A2 *1200:C 4.25523e-05
28 *1206:A2 *1206:B1_N 0
29 *1206:A2 *267:31 0
30 *185:8 *1190:B 0
31 *185:8 *271:45 9.25014e-06
32 *185:8 *271:107 0.000266092
33 *185:12 *246:50 0.000165278
34 *185:12 *271:107 5.33005e-05
35 *185:38 *1190:B 0
36 *185:38 *239:179 0
37 *185:38 *246:12 0
38 *185:38 *246:38 0
39 *185:38 *246:46 0
40 *185:38 *271:107 2.24646e-05
41 *185:38 *353:34 0
42 *185:38 *353:73 0
43 *185:38 *354:10 0
44 *185:38 *354:20 0
45 *185:47 *1200:C 9.56968e-05
46 *185:47 *239:179 0
47 *185:47 *353:73 0
48 *185:58 *1200:C 0.000182329
49 *185:58 *239:179 0
50 *185:58 *267:31 0
51 *185:62 *1207:B1 2.44318e-05
52 *185:66 *1207:B1 3.18676e-05
53 *185:66 *1207:C1 0.0001656
54 *185:66 *1387:A 9.6561e-06
55 *1169:A2 *185:66 3.72932e-05
56 *1177:A *185:12 0.000125057
57 *1205:A2 *1205:A3 0.000271345
58 *1207:A2 *185:62 0.00049041
59 *1307:D *185:12 5.09882e-05
60 *1307:D *185:38 0
61 *1312:D *185:66 3.32132e-06
62 *1316:D *1204:A2 0
63 *120:8 *185:8 0
64 *159:10 *1203:A3 5.71472e-05
65 *159:38 *1204:A2 3.20153e-05
66 *159:38 *1205:A3 3.0285e-05
67 *159:59 *185:66 4.97765e-05
68 *173:12 *185:12 0.000122101
*RES
1 *1198:X *185:8 17.2643 
2 *185:8 *185:12 17.7679 
3 *185:12 *1203:A3 22.4429 
4 *185:12 *1202:A2 10.5679 
5 *185:8 *185:38 10.1429 
6 *185:38 *1200:D 13.8 
7 *185:38 *185:47 2.85714 
8 *185:47 *1199:C 15.9786 
9 *185:47 *185:58 4.375 
10 *185:58 *185:62 9.55357 
11 *185:62 *185:66 19 
12 *185:66 *1205:A3 17.7286 
13 *185:66 *1204:A2 14.8357 
14 *185:62 *1207:A3 9.72857 
15 *185:58 *1206:A2 14.8357 
*END

*D_NET *186 0.000809801
*CONN
*I *1201:A2 I *D sky130_fd_sc_hd__o211a_2
*I *1199:Y O *D sky130_fd_sc_hd__nor3_2
*CAP
1 *1201:A2 0.000154731
2 *1199:Y 0.000154731
3 *1201:A2 *247:98 9.71197e-05
4 *119:10 *1201:A2 0.000145574
5 *179:89 *1201:A2 0.000257644
*RES
1 *1199:Y *1201:A2 32.0107 
*END

*D_NET *187 0.000491159
*CONN
*I *1201:B1 I *D sky130_fd_sc_hd__o211a_2
*I *1200:X O *D sky130_fd_sc_hd__or4_2
*CAP
1 *1201:B1 0.000187651
2 *1200:X 0.000187651
3 *1201:B1 *354:64 1.97695e-05
4 *1201:B1 *354:73 9.60875e-05
*RES
1 *1200:X *1201:B1 21.6357 
*END

*D_NET *188 0.00050872
*CONN
*I *1203:B1 I *D sky130_fd_sc_hd__o311a_2
*I *1202:Y O *D sky130_fd_sc_hd__o21bai_2
*CAP
1 *1203:B1 9.29994e-05
2 *1202:Y 9.29994e-05
3 *1203:B1 *1193:A1 5.33882e-05
4 *1203:B1 *246:56 5.52238e-05
5 *1203:B1 *266:81 5.80706e-06
6 *1203:B1 *266:90 3.17067e-05
7 *1203:A2 *1203:B1 5.33005e-05
8 *1203:A3 *1203:B1 0.000123295
*RES
1 *1202:Y *1203:B1 30.0821 
*END

*D_NET *189 0.000527282
*CONN
*I *1205:B1 I *D sky130_fd_sc_hd__o311a_2
*I *1204:Y O *D sky130_fd_sc_hd__o21bai_2
*CAP
1 *1205:B1 0.000211594
2 *1204:Y 0.000211594
3 *1205:B1 *1204:B1_N 5.52302e-05
4 *1169:A2 *1205:B1 4.88637e-05
5 *1204:A2 *1205:B1 0
6 *1205:A3 *1205:B1 0
7 *1316:D *1205:B1 0
8 *159:38 *1205:B1 0
*RES
1 *1204:Y *1205:B1 31.5107 
*END

*D_NET *190 0.000752251
*CONN
*I *1207:B1 I *D sky130_fd_sc_hd__o311a_2
*I *1206:Y O *D sky130_fd_sc_hd__o21bai_2
*CAP
1 *1207:B1 0.000111902
2 *1206:Y 0.000111902
3 *1207:B1 *267:42 0.000155067
4 *1207:A2 *1207:B1 0.000317082
5 *185:62 *1207:B1 2.44318e-05
6 *185:66 *1207:B1 3.18676e-05
*RES
1 *1206:Y *1207:B1 22.85 
*END

*D_NET *191 0.00104899
*CONN
*I *1217:A1 I *D sky130_fd_sc_hd__a21boi_2
*I *1212:A I *D sky130_fd_sc_hd__or4_2
*I *1208:Y O *D sky130_fd_sc_hd__nand2b_2
*CAP
1 *1217:A1 0.000135661
2 *1212:A 0.000102428
3 *1208:Y 0.000238089
4 *1212:A *1212:C 0.000233832
5 *1212:A *195:20 3.31014e-05
6 *1217:A1 *1208:A_N 1.69976e-05
7 *1217:A1 *1208:B 0.000158986
8 *1402:A *1217:A1 0.0001299
*RES
1 *1208:Y *1212:A 21.2071 
2 *1208:Y *1217:A1 31.6714 
*END

*D_NET *192 0.00120748
*CONN
*I *1212:B I *D sky130_fd_sc_hd__or4_2
*I *1209:X O *D sky130_fd_sc_hd__or4b_2
*CAP
1 *1212:B 0.000533711
2 *1209:X 0.000533711
3 *1212:B *1208:B 0
4 *1212:B *1209:A 3.13687e-05
5 *1212:B *1212:D 3.6337e-05
6 *1212:B *1231:A 0
7 *1212:B *239:35 7.23529e-05
*RES
1 *1209:X *1212:B 37.1179 
*END

*D_NET *193 0.00178322
*CONN
*I *1212:C I *D sky130_fd_sc_hd__or4_2
*I *1210:X O *D sky130_fd_sc_hd__or3_2
*CAP
1 *1212:C 0.000690912
2 *1210:X 0.000690912
3 *1212:C *1208:A_N 2.24718e-05
4 *1212:C *1319:D 2.48421e-05
5 *1212:C *195:20 1.13883e-05
6 *1212:C *343:6 1.29901e-05
7 *1212:A *1212:C 0.000233832
8 *1402:A *1212:C 9.58689e-05
*RES
1 *1210:X *1212:C 38.9393 
*END

*D_NET *194 0.00109293
*CONN
*I *1212:D I *D sky130_fd_sc_hd__or4_2
*I *1211:X O *D sky130_fd_sc_hd__or4_2
*CAP
1 *1212:D 0.000312221
2 *1211:X 0.000312221
3 *1212:D *1211:D 7.41899e-05
4 *1212:D *240:24 0.000357962
5 *1212:B *1212:D 3.6337e-05
*RES
1 *1211:X *1212:D 32.9571 
*END

*D_NET *195 0.00591504
*CONN
*I *1250:A2 I *D sky130_fd_sc_hd__o21bai_2
*I *1264:B I *D sky130_fd_sc_hd__or2_2
*I *1251:A2 I *D sky130_fd_sc_hd__o21ba_2
*I *1213:B I *D sky130_fd_sc_hd__nand2_2
*I *1212:X O *D sky130_fd_sc_hd__or4_2
*CAP
1 *1250:A2 0
2 *1264:B 0.000204401
3 *1251:A2 0
4 *1213:B 0.000202065
5 *1212:X 0.00206642
6 *195:50 0.000327925
7 *195:39 0.000322519
8 *195:20 0.00246748
9 *1213:B *1213:A 4.1331e-06
10 *1213:B *196:51 0
11 *1213:B *262:33 1.22624e-05
12 *195:20 *1211:D 4.35849e-05
13 *195:20 *310:12 0.000107263
14 *195:20 *383:21 9.11048e-06
15 *195:39 *1213:A 0
16 *195:39 *262:33 3.7538e-06
17 *195:39 *273:78 0
18 *195:39 *273:97 0
19 *195:50 *1251:B1_N 0
20 *195:50 *273:97 0
21 *1212:A *195:20 3.31014e-05
22 *1212:C *195:20 1.13883e-05
23 *105:10 *195:39 1.49841e-05
24 *105:10 *195:50 7.43965e-05
25 *105:21 *195:50 1.02504e-05
*RES
1 *1212:X *195:20 30.3502 
2 *195:20 *1213:B 17.8581 
3 *195:20 *195:39 6.50196 
4 *195:39 *1251:A2 13.8 
5 *195:39 *195:50 6.75 
6 *195:50 *1264:B 12.3179 
7 *195:50 *1250:A2 9.3 
*END

*D_NET *196 0.0062184
*CONN
*I *1261:A2 I *D sky130_fd_sc_hd__a31o_2
*I *1263:A2 I *D sky130_fd_sc_hd__a31o_2
*I *1260:B1 I *D sky130_fd_sc_hd__o211a_2
*I *1242:B1 I *D sky130_fd_sc_hd__a211o_2
*I *1240:B I *D sky130_fd_sc_hd__or3_2
*I *1214:B I *D sky130_fd_sc_hd__nor2_2
*I *1213:Y O *D sky130_fd_sc_hd__nand2_2
*CAP
1 *1261:A2 2.48146e-05
2 *1263:A2 4.13146e-05
3 *1260:B1 0.000184036
4 *1242:B1 4.45348e-05
5 *1240:B 0
6 *1214:B 0.000272844
7 *1213:Y 5.00727e-05
8 *196:55 0.000348862
9 *196:51 0.000575082
10 *196:18 0.000873355
11 *196:10 0.000764561
12 *196:8 0.000596344
13 *1214:B *1172:A 0
14 *1214:B *1241:B1_N 0.000188586
15 *1214:B *1328:CLK 0
16 *1214:B *241:24 0.00024162
17 *1242:B1 *1240:C 1.39841e-05
18 *1242:B1 *1242:A1 9.15016e-05
19 *1242:B1 *1242:A2 2.44318e-05
20 *1242:B1 *273:65 0.000221409
21 *1260:B1 *1262:B1_N 0
22 *1260:B1 *1335:CLK 0
23 *1260:B1 *225:14 0
24 *1260:B1 *265:41 1.02504e-05
25 *1261:A2 *1263:A1 1.00914e-05
26 *1261:A2 *1263:A3 0
27 *1263:A2 *1265:A1 5.80706e-06
28 *1263:A2 *1335:CLK 0
29 *196:18 *1240:C 0
30 *196:18 *1241:B1_N 5.52238e-05
31 *196:18 *1243:B1_N 0.000389868
32 *196:18 *241:20 3.27076e-05
33 *196:18 *310:12 0
34 *196:51 *1213:A 9.10431e-06
35 *196:51 *1261:B1 2.89114e-05
36 *196:51 *1263:A1 1.01823e-05
37 *196:51 *1265:A2 9.0145e-05
38 *196:51 *1424:A 6.42338e-05
39 *196:51 *262:10 0.000175526
40 *196:51 *262:33 1.24469e-05
41 *196:51 *387:10 7.79781e-06
42 *196:51 *387:12 1.09026e-05
43 *196:51 *387:51 8.87093e-05
44 *196:55 *1262:B1_N 5.71472e-05
45 *196:55 *1263:A1 1.4024e-05
46 *196:55 *1263:A3 0.000189266
47 *1078:A *196:51 0.000122951
48 *1083:B1 *196:51 2.49484e-05
49 *1213:B *196:51 0
50 *1263:B1 *1263:A2 2.19684e-05
51 *1328:D *196:18 9.59212e-05
52 *103:10 *196:8 5.33433e-05
53 *103:10 *196:51 7.95714e-05
*RES
1 *1213:Y *196:8 14.7464 
2 *196:8 *196:10 1.64286 
3 *196:10 *196:18 14.6429 
4 *196:18 *1214:B 14.6929 
5 *196:18 *1240:B 9.3 
6 *196:10 *1242:B1 15.9964 
7 *196:8 *196:51 15.0982 
8 *196:51 *196:55 7.54464 
9 *196:55 *1260:B1 16.8893 
10 *196:55 *1263:A2 14.8357 
11 *196:51 *1261:A2 9.89821 
*END

*D_NET *197 0.00352301
*CONN
*I *1248:C1 I *D sky130_fd_sc_hd__o211a_2
*I *1363:A I *D sky130_fd_sc_hd__clkdlybuf4s25_1
*I *1214:Y O *D sky130_fd_sc_hd__nor2_2
*CAP
1 *1248:C1 0.000696069
2 *1363:A 7.64637e-05
3 *1214:Y 0.00019876
4 *197:8 0.000971294
5 *1248:C1 *1241:A1 0.000143651
6 *1248:C1 *1241:A2 0.000722495
7 *1248:C1 *1241:B1_N 0.000142856
8 *1248:C1 *382:10 1.92789e-05
9 *1363:A *1239:D 3.48682e-05
10 *1363:A *212:8 0.000226738
11 *1363:A *263:113 5.35423e-05
12 *1363:A *382:10 0
13 *197:8 *1238:A_N 0.000126446
14 *197:8 *1238:B 3.69865e-05
15 *197:8 *1241:B1_N 0
16 *197:8 *1326:CLK 0
17 *197:8 *212:8 2.31791e-05
18 *197:8 *263:113 5.03787e-05
19 *1326:D *197:8 0
*RES
1 *1214:Y *197:8 18.4786 
2 *197:8 *1363:A 16.6571 
3 *197:8 *1248:C1 29.4071 
*END

*D_NET *198 0.000209985
*CONN
*I *1217:A2 I *D sky130_fd_sc_hd__a21boi_2
*I *1216:Y O *D sky130_fd_sc_hd__nand2b_2
*CAP
1 *1217:A2 5.03111e-05
2 *1216:Y 5.03111e-05
3 *1217:A2 *1208:A_N 6.66813e-05
4 *1217:A2 *1208:B 4.26814e-05
*RES
1 *1216:Y *1217:A2 29.2429 
*END

*D_NET *199 0.000349135
*CONN
*I *1428:A I *D sky130_fd_sc_hd__dlygate4sd3_1
*I *1218:Y O *D sky130_fd_sc_hd__nand3_2
*CAP
1 *1428:A 0.000145994
2 *1218:Y 0.000145994
3 *1428:A *1218:C 0
4 *1428:A *1220:C 0
5 *1428:A *376:16 5.71472e-05
*RES
1 *1218:Y *1428:A 30.0821 
*END

*D_NET *200 0.00233458
*CONN
*I *1220:C I *D sky130_fd_sc_hd__and3_2
*I *1219:X O *D sky130_fd_sc_hd__a21o_2
*CAP
1 *1220:C 0.000497262
2 *1219:X 0.000497262
3 *1220:C *1215:A_N 9.2437e-05
4 *1220:C *1215:B 0
5 *1220:C *1218:A 0.000230475
6 *1220:C *1219:B1 0
7 *1220:C *1220:B 0.000482163
8 *1220:C *1318:CLK 1.17968e-05
9 *1220:C *375:39 0.000230475
10 *1220:C *377:28 0
11 *1320:D *1220:C 0.000292708
12 *1428:A *1220:C 0
*RES
1 *1219:X *1220:C 40.975 
*END

*D_NET *201 0.00549609
*CONN
*I *1223:A_N I *D sky130_fd_sc_hd__and3b_2
*I *1228:A2 I *D sky130_fd_sc_hd__a21o_2
*I *1231:D I *D sky130_fd_sc_hd__and4_2
*I *1227:C I *D sky130_fd_sc_hd__and3_2
*I *1225:B I *D sky130_fd_sc_hd__or2_2
*I *1224:B I *D sky130_fd_sc_hd__nand2_2
*I *1221:X O *D sky130_fd_sc_hd__and4_2
*CAP
1 *1223:A_N 0
2 *1228:A2 0
3 *1231:D 0.00028678
4 *1227:C 0
5 *1225:B 0.00021681
6 *1224:B 0.000123035
7 *1221:X 0.000364526
8 *201:30 0.000668101
9 *201:28 0.00099486
10 *201:14 0.000573994
11 *201:12 0.000558695
12 *1224:B *1224:A 6.20656e-05
13 *1225:B *1226:B 0
14 *1225:B *1421:A 4.96435e-05
15 *1225:B *240:51 0.000126446
16 *1225:B *263:39 0
17 *1225:B *378:10 8.16036e-05
18 *1231:D *1230:A 3.92757e-05
19 *1231:D *1230:B 0.000225307
20 *1231:D *1231:B 1.27784e-05
21 *1231:D *1231:C 6.05161e-06
22 *1231:D *208:6 9.33978e-07
23 *1231:D *240:73 9.58181e-05
24 *1231:D *263:29 0
25 *1231:D *263:33 0
26 *1231:D *378:65 1.8461e-05
27 *201:12 *1228:B1 0
28 *201:14 *1228:B1 0.000143652
29 *201:14 *263:61 0.000140556
30 *201:28 *1228:A1 5.49544e-05
31 *201:28 *1228:B1 1.64621e-05
32 *201:28 *1229:A_N 0.000160286
33 *201:28 *1230:B 3.34295e-05
34 *201:28 *263:39 0
35 *201:28 *378:52 4.72217e-05
36 *201:30 *1421:A 9.90431e-05
37 *201:30 *240:73 0.000227797
38 *1324:D *1231:D 6.75007e-05
*RES
1 *1221:X *201:12 22.7286 
2 *201:12 *201:14 3.82143 
3 *201:14 *201:28 16.3214 
4 *201:28 *201:30 6.28571 
5 *201:30 *1224:B 11.4964 
6 *201:30 *1225:B 23.2821 
7 *201:28 *1227:C 9.3 
8 *201:28 *1231:D 24.9964 
9 *201:14 *1228:A2 9.3 
10 *201:12 *1223:A_N 9.3 
*END

*D_NET *202 0.00091517
*CONN
*I *1223:B I *D sky130_fd_sc_hd__and3b_2
*I *1222:X O *D sky130_fd_sc_hd__a31o_2
*CAP
1 *1223:B 0.000350607
2 *1222:X 0.000350607
3 *1223:B *1209:D_N 5.52302e-05
4 *1223:B *1221:C 0
5 *1223:B *1228:B1 0
6 *1321:D *1223:B 0.000158726
*RES
1 *1222:X *1223:B 34.3321 
*END

*D_NET *203 0.000564593
*CONN
*I *1226:B I *D sky130_fd_sc_hd__and3_2
*I *1224:Y O *D sky130_fd_sc_hd__nand2_2
*CAP
1 *1226:B 0.000239999
2 *1224:Y 0.000239999
3 *1226:B *1226:C 5.30637e-06
4 *1225:B *1226:B 0
5 *1322:D *1226:B 7.92879e-05
*RES
1 *1224:Y *1226:B 31.9036 
*END

*D_NET *204 0.000215999
*CONN
*I *1226:C I *D sky130_fd_sc_hd__and3_2
*I *1225:X O *D sky130_fd_sc_hd__or2_2
*CAP
1 *1226:C 8.65296e-05
2 *1225:X 8.65296e-05
3 *1226:C *1226:A 3.76337e-05
4 *1226:B *1226:C 5.30637e-06
*RES
1 *1225:X *1226:C 20.3857 
*END

*D_NET *205 0.00170854
*CONN
*I *1230:B I *D sky130_fd_sc_hd__or2_2
*I *1229:A_N I *D sky130_fd_sc_hd__and3b_2
*I *1227:X O *D sky130_fd_sc_hd__and3_2
*CAP
1 *1230:B 0.00017984
2 *1229:A_N 0.000203387
3 *1227:X 0
4 *205:6 0.000383227
5 *1229:A_N *1228:A1 0.000144773
6 *1229:A_N *263:33 0
7 *1229:A_N *263:61 0.00014285
8 *1230:B *1227:B 0.000120083
9 *1230:B *1230:A 5.49544e-05
10 *1230:B *263:33 0
11 *1230:B *378:65 0
12 *1231:D *1230:B 0.000225307
13 *1323:D *1229:A_N 6.04069e-05
14 *201:28 *1229:A_N 0.000160286
15 *201:28 *1230:B 3.34295e-05
*RES
1 *1227:X *205:6 13.8 
2 *205:6 *1229:A_N 19.5321 
3 *205:6 *1230:B 18.3357 
*END

*D_NET *206 0.000685659
*CONN
*I *1229:B I *D sky130_fd_sc_hd__and3b_2
*I *1228:X O *D sky130_fd_sc_hd__a21o_2
*CAP
1 *1229:B 0.000215805
2 *1228:X 0.000215805
3 *1229:B *263:61 7.03295e-05
4 *1323:D *1229:B 0.00018372
*RES
1 *1228:X *1229:B 21.6 
*END

*D_NET *207 0.000353235
*CONN
*I *1232:C I *D sky130_fd_sc_hd__and3b_2
*I *1230:X O *D sky130_fd_sc_hd__or2_2
*CAP
1 *1232:C 0.000145768
2 *1230:X 0.000145768
3 *1232:C *1230:A 0
4 *1232:C *263:29 2.98321e-05
5 *1324:D *1232:C 3.18676e-05
*RES
1 *1230:X *1232:C 21.3232 
*END

*D_NET *208 0.00502428
*CONN
*I *1234:B I *D sky130_fd_sc_hd__nand2_2
*I *1232:A_N I *D sky130_fd_sc_hd__and3b_2
*I *1239:D I *D sky130_fd_sc_hd__and4_2
*I *1237:C I *D sky130_fd_sc_hd__and3_2
*I *1236:A2 I *D sky130_fd_sc_hd__a21o_2
*I *1233:B I *D sky130_fd_sc_hd__or2_2
*I *1231:X O *D sky130_fd_sc_hd__and4_2
*CAP
1 *1234:B 0
2 *1232:A_N 0.00018692
3 *1239:D 0.000518108
4 *1237:C 1.65468e-05
5 *1236:A2 6.56629e-05
6 *1233:B 0
7 *1231:X 0.000396492
8 *208:54 0.000270989
9 *208:23 8.22097e-05
10 *208:21 0.000695065
11 *208:12 0.000542519
12 *208:6 0.000846124
13 *1232:A_N *240:47 0.000148911
14 *1236:A2 *1236:A1 0.000182806
15 *1237:C *1236:A1 5.50052e-05
16 *1237:C *1237:B 3.54697e-06
17 *1239:D *1236:B1 3.69047e-06
18 *1239:D *1239:B 0.000487086
19 *1239:D *1239:C 3.08664e-05
20 *1239:D *212:8 6.20243e-05
21 *1239:D *263:113 5.33433e-05
22 *1239:D *382:10 0
23 *208:6 *263:23 3.50001e-05
24 *208:12 *1234:A 7.77652e-05
25 *208:12 *1235:B 9.47733e-05
26 *208:12 *1235:C 5.30637e-06
27 *208:12 *263:23 8.81471e-06
28 *208:21 *212:8 1.6806e-05
29 *208:54 *1234:A 5.33005e-05
30 *208:54 *263:23 4.87953e-05
31 *1231:D *208:6 9.33978e-07
32 *1363:A *1239:D 3.48682e-05
*RES
1 *1231:X *208:6 13.9429 
2 *208:6 *208:12 10.8571 
3 *208:12 *1233:B 13.8 
4 *208:12 *208:21 3.46429 
5 *208:21 *208:23 4.5 
6 *208:23 *1236:A2 11.0679 
7 *208:23 *1237:C 9.83571 
8 *208:21 *1239:D 24.8179 
9 *208:6 *208:54 1.98214 
10 *208:54 *1232:A_N 21.6036 
11 *208:54 *1234:B 9.3 
*END

*D_NET *209 0.000548565
*CONN
*I *1235:B I *D sky130_fd_sc_hd__and3_2
*I *1233:X O *D sky130_fd_sc_hd__or2_2
*CAP
1 *1235:B 0.000189468
2 *1233:X 0.000189468
3 *1325:D *1235:B 7.48554e-05
4 *208:12 *1235:B 9.47733e-05
*RES
1 *1233:X *1235:B 31.9036 
*END

*D_NET *210 0.000236502
*CONN
*I *1235:C I *D sky130_fd_sc_hd__and3_2
*I *1234:Y O *D sky130_fd_sc_hd__nand2_2
*CAP
1 *1235:C 6.86313e-05
2 *1234:Y 6.86313e-05
3 *1235:C *1234:A 0
4 *1235:C *1235:A 5.7661e-06
5 *1235:C *263:12 5.62995e-05
6 *1235:C *263:23 3.18676e-05
7 *208:12 *1235:C 5.30637e-06
*RES
1 *1234:Y *1235:C 20.3857 
*END

*D_NET *211 0.00108521
*CONN
*I *1238:C I *D sky130_fd_sc_hd__and3b_2
*I *1236:X O *D sky130_fd_sc_hd__a21o_2
*CAP
1 *1238:C 0.000453714
2 *1236:X 0.000453714
3 *1238:C *1236:B1 0.000100248
4 *1238:C *1238:A_N 0
5 *1238:C *1326:CLK 1.00375e-05
6 *1238:C *212:8 0
7 *1326:D *1238:C 6.75007e-05
*RES
1 *1236:X *1238:C 35.7875 
*END

*D_NET *212 0.00272126
*CONN
*I *1238:A_N I *D sky130_fd_sc_hd__and3b_2
*I *1241:A2 I *D sky130_fd_sc_hd__o21ba_2
*I *1237:X O *D sky130_fd_sc_hd__and3_2
*CAP
1 *1238:A_N 0.000107385
2 *1241:A2 0.000436478
3 *1237:X 0.000222536
4 *212:8 0.000766399
5 *1238:A_N *1238:B 1.07719e-05
6 *1238:C *1238:A_N 0
7 *1238:C *212:8 0
8 *1239:D *212:8 6.20243e-05
9 *1248:C1 *1241:A2 0.000722495
10 *1363:A *212:8 0.000226738
11 *197:8 *1238:A_N 0.000126446
12 *197:8 *212:8 2.31791e-05
13 *208:21 *212:8 1.6806e-05
*RES
1 *1237:X *212:8 19.0857 
2 *212:8 *1241:A2 22.6036 
3 *212:8 *1238:A_N 15.9786 
*END

*D_NET *213 0.00822265
*CONN
*I *1244:A2 I *D sky130_fd_sc_hd__a21o_2
*I *1242:A2 I *D sky130_fd_sc_hd__a211o_2
*I *1240:C I *D sky130_fd_sc_hd__or3_2
*I *1245:C I *D sky130_fd_sc_hd__nand3_2
*I *1243:A2 I *D sky130_fd_sc_hd__o21ba_2
*I *1247:A3 I *D sky130_fd_sc_hd__a31o_2
*I *1239:X O *D sky130_fd_sc_hd__and4_2
*CAP
1 *1244:A2 4.3489e-05
2 *1242:A2 2.89529e-05
3 *1240:C 0.000458561
4 *1245:C 0
5 *1243:A2 0.00049743
6 *1247:A3 0
7 *1239:X 0.000284769
8 *213:45 0.000819953
9 *213:41 0.000556927
10 *213:32 0.000192086
11 *213:17 0.000674819
12 *213:6 0.00045107
13 *1240:C *1243:B1_N 0
14 *1240:C *273:14 0
15 *1240:C *273:65 0.000281777
16 *1242:A2 *1242:A1 3.77609e-05
17 *1242:A2 *273:65 1.97695e-05
18 *1243:A2 *1243:A1 9.99853e-05
19 *1243:A2 *1245:A 5.44767e-05
20 *1243:A2 *1245:B 2.89016e-05
21 *1243:A2 *1246:A 0.000186765
22 *1243:A2 *1246:C 0.00022866
23 *1243:A2 *1248:A2 2.95726e-05
24 *1244:A2 *1244:B1 2.16719e-05
25 *1244:A2 *241:73 0
26 *1244:A2 *372:38 3.17148e-05
27 *213:6 *1239:C 0.000228508
28 *213:6 *1248:B1 9.67754e-05
29 *213:17 *1248:A2 0.000128146
30 *213:17 *1248:B1 0.000159007
31 *213:17 *372:14 0.000374007
32 *213:17 *373:20 6.36951e-06
33 *213:32 *1248:A2 4.90803e-05
34 *213:32 *372:14 5.83304e-05
35 *213:41 *1244:B1 0.000218114
36 *213:41 *1248:A2 2.31791e-05
37 *213:41 *372:14 0.000272665
38 *213:41 *372:38 0.000284165
39 *213:41 *373:14 3.87941e-05
40 *213:45 *1242:A1 0.000594546
41 *213:45 *1246:B 0.000270257
42 *213:45 *310:12 5.48674e-05
43 *213:45 *372:38 4.18895e-05
44 *213:45 *372:40 0.000256422
45 *1242:B1 *1240:C 1.39841e-05
46 *1242:B1 *1242:A2 2.44318e-05
47 *196:18 *1240:C 0
*RES
1 *1239:X *213:6 14.7643 
2 *213:6 *1247:A3 9.3 
3 *213:6 *213:17 10.2321 
4 *213:17 *1243:A2 21.7643 
5 *213:17 *213:32 0.732143 
6 *213:32 *1245:C 13.8 
7 *213:32 *213:41 7.10714 
8 *213:41 *213:45 13.25 
9 *213:45 *1240:C 26.4964 
10 *213:45 *1242:A2 10.6929 
11 *213:41 *1244:A2 14.5321 
*END

*D_NET *214 0.00125955
*CONN
*I *1241:B1_N I *D sky130_fd_sc_hd__o21ba_2
*I *1240:X O *D sky130_fd_sc_hd__or3_2
*CAP
1 *1241:B1_N 0.000383872
2 *1240:X 0.000383872
3 *1241:B1_N *1238:B 0
4 *1241:B1_N *1240:A 5.62995e-05
5 *1241:B1_N *1243:B1_N 0
6 *1241:B1_N *241:24 4.8843e-05
7 *1241:B1_N *263:113 0
8 *1214:B *1241:B1_N 0.000188586
9 *1248:C1 *1241:B1_N 0.000142856
10 *1327:D *1241:B1_N 0
11 *1328:D *1241:B1_N 0
12 *196:18 *1241:B1_N 5.52238e-05
13 *197:8 *1241:B1_N 0
*RES
1 *1240:X *1241:B1_N 35.8143 
*END

*D_NET *215 0.00116703
*CONN
*I *1243:B1_N I *D sky130_fd_sc_hd__o21ba_2
*I *1242:X O *D sky130_fd_sc_hd__a211o_2
*CAP
1 *1243:B1_N 0.000348216
2 *1242:X 0.000348216
3 *1243:B1_N *1246:A 8.07313e-05
4 *1240:C *1243:B1_N 0
5 *1241:B1_N *1243:B1_N 0
6 *1328:D *1243:B1_N 0
7 *196:18 *1243:B1_N 0.000389868
*RES
1 *1242:X *1243:B1_N 35.4571 
*END

*D_NET *216 0.00145146
*CONN
*I *1246:B I *D sky130_fd_sc_hd__and3_2
*I *1244:X O *D sky130_fd_sc_hd__a21o_2
*CAP
1 *1246:B 0.000429125
2 *1244:X 0.000429125
3 *1246:B *310:12 0.000245339
4 *1329:D *1246:B 7.76132e-05
5 *213:45 *1246:B 0.000270257
*RES
1 *1244:X *1246:B 36.0821 
*END

*D_NET *217 0.00101542
*CONN
*I *1248:A2 I *D sky130_fd_sc_hd__o211a_2
*I *1246:C I *D sky130_fd_sc_hd__and3_2
*I *1245:Y O *D sky130_fd_sc_hd__nand3_2
*CAP
1 *1248:A2 0.000119309
2 *1246:C 4.51758e-05
3 *1245:Y 0.000164484
4 *1246:C *1245:A 0.000101859
5 *1248:A2 *1245:B 1.24368e-05
6 *1248:A2 *1248:B1 1.02504e-05
7 *1248:A2 *373:14 2.84398e-05
8 *1248:A2 *373:20 7.4826e-05
9 *1243:A2 *1246:C 0.00022866
10 *1243:A2 *1248:A2 2.95726e-05
11 *213:17 *1248:A2 0.000128146
12 *213:32 *1248:A2 4.90803e-05
13 *213:41 *1248:A2 2.31791e-05
*RES
1 *1245:Y *1246:C 20.7786 
2 *1245:Y *1248:A2 31.1 
*END

*D_NET *218 0.000716556
*CONN
*I *1248:B1 I *D sky130_fd_sc_hd__o211a_2
*I *1247:X O *D sky130_fd_sc_hd__a31o_2
*CAP
1 *1248:B1 0.00012384
2 *1247:X 0.00012384
3 *1248:B1 *373:20 0.000202842
4 *1248:A2 *1248:B1 1.02504e-05
5 *213:6 *1248:B1 9.67754e-05
6 *213:17 *1248:B1 0.000159007
*RES
1 *1247:X *1248:B1 31.5107 
*END

*D_NET *219 0.0127303
*CONN
*I *1280:B I *D sky130_fd_sc_hd__or2_2
*I *1272:B I *D sky130_fd_sc_hd__or2_2
*I *1278:B I *D sky130_fd_sc_hd__or2_2
*I *1276:B I *D sky130_fd_sc_hd__or2_2
*I *1268:B I *D sky130_fd_sc_hd__or2_2
*I *1270:B I *D sky130_fd_sc_hd__or2_2
*I *1266:B I *D sky130_fd_sc_hd__or2_2
*I *1254:B1 I *D sky130_fd_sc_hd__a311o_2
*I *1250:B1_N I *D sky130_fd_sc_hd__o21bai_2
*I *1274:B I *D sky130_fd_sc_hd__or2_2
*I *1249:Y O *D sky130_fd_sc_hd__nor2_2
*CAP
1 *1280:B 3.43151e-05
2 *1272:B 0.00050934
3 *1278:B 0
4 *1276:B 2.33787e-05
5 *1268:B 0.000163954
6 *1270:B 0
7 *1266:B 0.000181179
8 *1254:B1 0.000335769
9 *1250:B1_N 7.70969e-05
10 *1274:B 0.000258132
11 *1249:Y 0.000190157
12 *219:71 0.000204025
13 *219:67 0.00052424
14 *219:35 0.00100193
15 *219:27 0.00134198
16 *219:16 0.000787247
17 *219:12 0.000286683
18 *219:10 0.000268143
19 *219:8 0.000627824
20 *219:6 0.000224473
21 *1250:B1_N *220:8 0.000226238
22 *1250:B1_N *239:33 5.03772e-05
23 *1254:B1 *1254:A2 3.36025e-05
24 *1254:B1 *220:8 0.000173328
25 *1254:B1 *239:23 8.86413e-05
26 *1254:B1 *239:33 0.000195396
27 *1254:B1 *248:18 1.24381e-05
28 *1254:B1 *273:97 0.000332506
29 *1254:B1 *384:27 0.000108753
30 *1266:B *1081:A0 0.000157081
31 *1266:B *1270:A 1.32552e-05
32 *1266:B *1271:B1 1.74352e-05
33 *1266:B *1316:CLK 0.000388822
34 *1268:B *245:55 0.000383798
35 *1272:B *1081:S1 0
36 *1272:B *1273:B1 2.89016e-05
37 *1272:B *1278:A 3.36355e-06
38 *1272:B *1279:B1 0
39 *1272:B *1280:A 0.000151841
40 *1272:B *245:61 9.7659e-05
41 *1272:B *272:57 0
42 *1272:B *396:10 0
43 *1274:B *1274:A 5.71472e-05
44 *1274:B *1275:C1 0.000144422
45 *1274:B *1341:CLK 5.71472e-05
46 *1276:B *1079:A2 5.49544e-05
47 *219:6 *1281:B1 6.62752e-05
48 *219:10 *1081:S1 0
49 *219:10 *1277:A3 0
50 *219:10 *1278:A 3.87349e-05
51 *219:12 *1276:A 0.00015304
52 *219:12 *268:83 0
53 *219:12 *394:12 4.13122e-06
54 *219:16 *1259:A 0
55 *219:16 *268:83 0
56 *219:16 *394:12 4.6361e-05
57 *219:27 *1082:S 2.89114e-05
58 *219:35 *1079:S0 0
59 *219:35 *1082:S 0.000229233
60 *219:35 *1251:B1_N 0
61 *219:35 *1255:A 8.1741e-05
62 *219:35 *1256:A3 0.0002253
63 *219:35 *1336:CLK 0
64 *219:35 *220:21 0
65 *219:35 *239:33 2.94103e-05
66 *219:35 *239:89 0
67 *219:35 *244:16 0.000101545
68 *219:35 *244:77 0
69 *219:35 *386:42 1.78353e-05
70 *219:67 *1267:A1 0
71 *219:67 *1267:A3 0
72 *219:67 *1268:A 0
73 *219:67 *239:89 0
74 *219:67 *245:14 7.49277e-05
75 *219:67 *245:38 6.39901e-05
76 *219:67 *245:55 3.55407e-05
77 *219:67 *268:79 0.000114048
78 *219:67 *386:42 1.18451e-05
79 *219:71 *1081:A0 5.33005e-05
80 *1082:A0 *219:27 0.000140933
81 *1082:A0 *219:67 5.33978e-05
82 *1082:A1 *219:67 0.000191009
83 *1083:A2 *219:27 5.20751e-05
84 *1267:A2 *219:67 0.000128154
85 *1337:D *1268:B 1.81709e-05
86 *1337:D *219:67 0.000226665
87 *1341:D *1274:B 8.6197e-05
88 *1434:A *1272:B 7.26935e-05
89 *3:30 *1254:B1 0.000233908
90 *18:15 *1268:B 0.000333997
91 *18:15 *1272:B 0
*RES
1 *1249:Y *219:6 12.3 
2 *219:6 *219:8 4.5 
3 *219:8 *219:10 1.94643 
4 *219:10 *219:12 3.16071 
5 *219:12 *219:16 6.44643 
6 *219:16 *1274:B 15.175 
7 *219:16 *219:27 11.6071 
8 *219:27 *219:35 17.7321 
9 *219:35 *1250:B1_N 11.4786 
10 *219:35 *1254:B1 27.9161 
11 *219:27 *219:67 10.5 
12 *219:67 *219:71 5.03571 
13 *219:71 *1266:B 14.5857 
14 *219:71 *1270:B 9.3 
15 *219:67 *1268:B 19.3179 
16 *219:12 *1276:B 14.3357 
17 *219:10 *1278:B 13.8 
18 *219:8 *1272:B 23.7107 
19 *219:6 *1280:B 9.83571 
*END

*D_NET *220 0.00514709
*CONN
*I *1258:A I *D sky130_fd_sc_hd__nand2_2
*I *1254:A3 I *D sky130_fd_sc_hd__a311o_2
*I *1256:A3 I *D sky130_fd_sc_hd__a31o_2
*I *1253:A2 I *D sky130_fd_sc_hd__a21oi_2
*I *1252:A2 I *D sky130_fd_sc_hd__a211oi_2
*I *1250:Y O *D sky130_fd_sc_hd__o21bai_2
*CAP
1 *1258:A 0.000198931
2 *1254:A3 7.42995e-05
3 *1256:A3 0.00032277
4 *1253:A2 0.000214288
5 *1252:A2 0.000152318
6 *1250:Y 0.000151719
7 *220:23 0.000390202
8 *220:21 0.000305712
9 *220:8 0.000483375
10 *1252:A2 *239:33 0
11 *1252:A2 *384:8 0
12 *1252:A2 *384:27 0
13 *1253:A2 *384:29 3.47984e-05
14 *1254:A3 *1254:A1 0.000122091
15 *1254:A3 *1254:A2 1.97695e-05
16 *1254:A3 *1255:B 1.39841e-05
17 *1254:A3 *384:29 0.000256992
18 *1256:A3 *1253:B1 2.82057e-05
19 *1256:A3 *1255:A 0.000150618
20 *1256:A3 *1256:A2 1.757e-05
21 *1256:A3 *239:73 0
22 *1256:A3 *385:21 0.000181796
23 *1256:A3 *385:25 6.98787e-05
24 *1258:A *1258:B 3.11823e-05
25 *1258:A *225:6 8.45479e-05
26 *1258:A *225:8 3.08664e-05
27 *1258:A *248:18 0.00019531
28 *1258:A *384:33 5.52302e-05
29 *1258:A *384:64 0.000358082
30 *220:8 *273:97 0.000397918
31 *220:21 *239:73 0
32 *220:23 *1255:B 3.69047e-06
33 *220:23 *384:29 0.000129515
34 *1083:A1 *1256:A3 5.7661e-06
35 *1083:A2 *1256:A3 1.32056e-05
36 *1250:B1_N *220:8 0.000226238
37 *1254:B1 *220:8 0.000173328
38 *1257:B1 *1258:A 2.75938e-05
39 *3:30 *220:21 0
40 *219:35 *1256:A3 0.0002253
41 *219:35 *220:21 0
*RES
1 *1250:Y *220:8 18.8536 
2 *220:8 *1252:A2 16.05 
3 *220:8 *220:21 7.35714 
4 *220:21 *220:23 1.35714 
5 *220:23 *1253:A2 9.63036 
6 *220:23 *1256:A3 26.2286 
7 *220:21 *1254:A3 12.3179 
8 *1253:A2 *1258:A 25.6 
*END

*D_NET *221 0.000507296
*CONN
*I *1252:B1 I *D sky130_fd_sc_hd__a211oi_2
*I *1251:X O *D sky130_fd_sc_hd__o21ba_2
*CAP
1 *1252:B1 0.000211045
2 *1251:X 0.000211045
3 *1252:B1 *1251:B1_N 7.19508e-05
4 *1331:D *1252:B1 1.32552e-05
*RES
1 *1251:X *1252:B1 21.5107 
*END

*D_NET *222 0.000673946
*CONN
*I *1255:A I *D sky130_fd_sc_hd__nor2_2
*I *1253:Y O *D sky130_fd_sc_hd__a21oi_2
*CAP
1 *1255:A 0.000108078
2 *1253:Y 0.000108078
3 *1255:A *1253:B1 8.00806e-05
4 *1255:A *1255:B 0.00014535
5 *1256:A3 *1255:A 0.000150618
6 *219:35 *1255:A 8.1741e-05
*RES
1 *1253:Y *1255:A 31.975 
*END

*D_NET *223 0.0010952
*CONN
*I *1255:B I *D sky130_fd_sc_hd__nor2_2
*I *1254:X O *D sky130_fd_sc_hd__a311o_2
*CAP
1 *1255:B 0.000304292
2 *1254:X 0.000304292
3 *1255:B *1253:B1 8.00806e-05
4 *1255:B *1254:A1 0.000219298
5 *1255:B *239:73 0
6 *1255:B *244:77 2.42082e-05
7 *1254:A3 *1255:B 1.39841e-05
8 *1255:A *1255:B 0.00014535
9 *220:23 *1255:B 3.69047e-06
*RES
1 *1254:X *1255:B 33.7429 
*END

*D_NET *224 0.000988281
*CONN
*I *1259:B I *D sky130_fd_sc_hd__and3_2
*I *1256:X O *D sky130_fd_sc_hd__a31o_2
*CAP
1 *1259:B 0.000201512
2 *1256:X 0.000201512
3 *1259:B *1259:C 0.000127439
4 *1259:B *1453:A 2.89114e-05
5 *1083:A1 *1259:B 0.000143375
6 *1083:A2 *1259:B 0.000186765
7 *1083:B1 *1259:B 9.87672e-05
*RES
1 *1256:X *1259:B 33.0643 
*END

*D_NET *225 0.00339576
*CONN
*I *1258:B I *D sky130_fd_sc_hd__nand2_2
*I *1260:C1 I *D sky130_fd_sc_hd__o211a_2
*I *1261:A3 I *D sky130_fd_sc_hd__a31o_2
*I *1263:A3 I *D sky130_fd_sc_hd__a31o_2
*I *1257:X O *D sky130_fd_sc_hd__a31o_2
*CAP
1 *1258:B 1.41193e-05
2 *1260:C1 0.000267807
3 *1261:A3 0
4 *1263:A3 0.000111478
5 *1257:X 1.71267e-05
6 *225:14 0.000226312
7 *225:8 0.000662293
8 *225:6 0.000310897
9 *1260:C1 *1260:A1 1.28809e-05
10 *1260:C1 *265:25 0.000130744
11 *1263:A3 *1263:A1 0.000210075
12 *225:6 *248:18 4.57092e-05
13 *225:8 *1259:C 0.000100124
14 *225:8 *248:18 9.16571e-05
15 *225:8 *265:25 0.000701659
16 *225:14 *1262:B1_N 5.26277e-05
17 *225:14 *248:18 0
18 *225:14 *273:8 8.18871e-05
19 *225:14 *273:10 1.0562e-05
20 *1258:A *1258:B 3.11823e-05
21 *1258:A *225:6 8.45479e-05
22 *1258:A *225:8 3.08664e-05
23 *1260:B1 *225:14 0
24 *1261:A2 *1263:A3 0
25 *1263:B1 *225:14 1.19402e-05
26 *196:55 *1263:A3 0.000189266
*RES
1 *1257:X *225:6 10.2464 
2 *225:6 *225:8 8.33929 
3 *225:8 *225:14 11.8571 
4 *225:14 *1263:A3 12.8536 
5 *225:14 *1261:A3 9.3 
6 *225:8 *1260:C1 14.5321 
7 *225:6 *1258:B 9.72857 
*END

*D_NET *226 0.00109533
*CONN
*I *1259:C I *D sky130_fd_sc_hd__and3_2
*I *1258:Y O *D sky130_fd_sc_hd__nand2_2
*CAP
1 *1259:C 0.000303904
2 *1258:Y 0.000303904
3 *1259:C *1259:A 1.02504e-05
4 *1259:C *244:24 5.52302e-05
5 *1259:C *248:10 0
6 *1259:C *387:8 4.48113e-05
7 *1259:C *387:10 6.80593e-05
8 *1083:B1 *1259:C 8.16036e-05
9 *1259:B *1259:C 0.000127439
10 *225:8 *1259:C 0.000100124
*RES
1 *1258:Y *1259:C 34.8857 
*END

*D_NET *227 0.000380175
*CONN
*I *1262:A2 I *D sky130_fd_sc_hd__o21ba_2
*I *1260:X O *D sky130_fd_sc_hd__o211a_2
*CAP
1 *1262:A2 0.000113564
2 *1260:X 0.000113564
3 *1262:A2 *1262:B1_N 0.000153047
*RES
1 *1260:X *1262:A2 30.0821 
*END

*D_NET *228 0.000936401
*CONN
*I *1262:B1_N I *D sky130_fd_sc_hd__o21ba_2
*I *1261:X O *D sky130_fd_sc_hd__a31o_2
*CAP
1 *1262:B1_N 0.000255505
2 *1261:X 0.000255505
3 *1262:B1_N *1260:A1 5.84267e-05
4 *1262:B1_N *265:41 4.58194e-05
5 *1260:B1 *1262:B1_N 0
6 *1262:A2 *1262:B1_N 0.000153047
7 *1334:D *1262:B1_N 5.83233e-05
8 *196:55 *1262:B1_N 5.71472e-05
9 *225:14 *1262:B1_N 5.26277e-05
*RES
1 *1261:X *1262:B1_N 33.4571 
*END

*D_NET *229 0.000853104
*CONN
*I *1265:A1 I *D sky130_fd_sc_hd__a21oi_2
*I *1263:X O *D sky130_fd_sc_hd__a31o_2
*CAP
1 *1265:A1 0.00026012
2 *1263:X 0.00026012
3 *1265:A1 *1265:B1 0.000144773
4 *1265:A1 *1335:CLK 0
5 *1265:A1 *273:10 0
6 *1263:A2 *1265:A1 5.80706e-06
7 *1263:B1 *1265:A1 0
8 *1335:D *1265:A1 0.000182285
*RES
1 *1263:X *1265:A1 33.3321 
*END

*D_NET *230 0.00202406
*CONN
*I *1265:A2 I *D sky130_fd_sc_hd__a21oi_2
*I *1264:X O *D sky130_fd_sc_hd__or2_2
*CAP
1 *1265:A2 0.000492563
2 *1264:X 0.000492563
3 *1265:A2 *1067:A 0
4 *1265:A2 *1084:A 0
5 *1265:A2 *1084:B 0.000241431
6 *1265:A2 *1265:B1 0.000120577
7 *1265:A2 *262:10 0.00014285
8 *1265:A2 *387:10 2.24646e-05
9 *1265:A2 *387:12 0.000112323
10 *1265:A2 *387:18 0.000255845
11 *1265:A2 *387:51 5.33005e-05
12 *196:51 *1265:A2 9.0145e-05
*RES
1 *1264:X *1265:A2 39.2071 
*END

*D_NET *231 0.000956209
*CONN
*I *1267:B1 I *D sky130_fd_sc_hd__o311a_2
*I *1266:X O *D sky130_fd_sc_hd__or2_2
*CAP
1 *1267:B1 0.000253509
2 *1266:X 0.000253509
3 *1267:B1 *1266:A 9.32756e-05
4 *1267:B1 *1297:CLK 0.000176226
5 *1267:B1 *1445:A 0
6 *1267:B1 *252:10 0
7 *1267:B1 *268:46 0
8 *3:30 *1267:B1 0.000179689
*RES
1 *1266:X *1267:B1 34.4036 
*END

*D_NET *232 0.000359887
*CONN
*I *1269:B1 I *D sky130_fd_sc_hd__o311a_2
*I *1268:X O *D sky130_fd_sc_hd__or2_2
*CAP
1 *1269:B1 6.34053e-05
2 *1268:X 6.34053e-05
3 *1269:B1 *1267:A1 2.97074e-05
4 *1269:B1 *1268:A 0.000147474
5 *1269:B1 *1269:A3 5.58941e-05
*RES
1 *1268:X *1269:B1 29.5464 
*END

*D_NET *233 0.000774597
*CONN
*I *1271:B1 I *D sky130_fd_sc_hd__o311a_2
*I *1270:X O *D sky130_fd_sc_hd__or2_2
*CAP
1 *1271:B1 0.000105438
2 *1270:X 0.000105438
3 *1271:B1 *1081:A0 0.000286179
4 *1271:B1 *1270:A 0.000178847
5 *1266:B *1271:B1 1.74352e-05
6 *3:30 *1271:B1 8.12588e-05
*RES
1 *1270:X *1271:B1 31.3143 
*END

*D_NET *234 0.0012943
*CONN
*I *1273:B1 I *D sky130_fd_sc_hd__o311a_2
*I *1272:X O *D sky130_fd_sc_hd__or2_2
*CAP
1 *1273:B1 0.000538795
2 *1272:X 0.000538795
3 *1273:B1 *1081:A1 0
4 *1273:B1 *1271:A3 4.12767e-05
5 *1273:B1 *1273:A3 2.06112e-05
6 *1273:B1 *1281:A1 0
7 *1273:B1 *245:57 6.91728e-05
8 *1273:B1 *245:61 1.03146e-05
9 *1272:B *1273:B1 2.89016e-05
10 *1339:D *1273:B1 4.64337e-05
*RES
1 *1272:X *1273:B1 34.6 
*END

*D_NET *235 0.000421542
*CONN
*I *1275:B1 I *D sky130_fd_sc_hd__o311a_2
*I *1274:X O *D sky130_fd_sc_hd__or2_2
*CAP
1 *1275:B1 6.99476e-05
2 *1274:X 6.99476e-05
3 *1275:B1 *1275:C1 0.00010096
4 *1275:B1 *1341:CLK 4.59075e-05
5 *102:25 *1275:B1 0.00013478
*RES
1 *1274:X *1275:B1 20.7964 
*END

*D_NET *236 0.000693706
*CONN
*I *1277:B1 I *D sky130_fd_sc_hd__o311a_2
*I *1276:X O *D sky130_fd_sc_hd__or2_2
*CAP
1 *1277:B1 0.000266089
2 *1276:X 0.000266089
3 *1277:B1 *1079:A2 1.57931e-05
4 *1277:B1 *1277:A3 1.02504e-05
5 *1277:B1 *1410:A 5.71472e-05
6 *1277:B1 *268:83 7.83366e-05
7 *1341:D *1277:B1 0
*RES
1 *1276:X *1277:B1 31.725 
*END

*D_NET *237 0.00235688
*CONN
*I *1279:B1 I *D sky130_fd_sc_hd__o311a_2
*I *1278:X O *D sky130_fd_sc_hd__or2_2
*CAP
1 *1279:B1 0.000425661
2 *1278:X 0.000425661
3 *1279:B1 *1081:A2 0.000125531
4 *1279:B1 *1081:A3 8.57023e-05
5 *1279:B1 *1277:A3 0
6 *1279:B1 *1278:A 0.000433508
7 *1279:B1 *1279:A3 5.52238e-05
8 *1279:B1 *1279:C1 0.000200715
9 *1279:B1 *1408:A 5.62995e-05
10 *1279:B1 *1411:A 0.00010096
11 *1279:B1 *265:65 0.000447622
12 *1279:B1 *265:93 0
13 *1279:B1 *272:57 0
14 *1272:B *1279:B1 0
*RES
1 *1278:X *1279:B1 40.3321 
*END

*D_NET *238 0.00218655
*CONN
*I *1281:B1 I *D sky130_fd_sc_hd__o311a_2
*I *1280:X O *D sky130_fd_sc_hd__or2_2
*CAP
1 *1281:B1 0.000452415
2 *1280:X 0.000452415
3 *1281:B1 *1281:A3 0.000596052
4 *1281:B1 *1281:C1 0.000257234
5 *1281:B1 *265:69 0.000128154
6 *1281:B1 *265:82 9.90367e-05
7 *1281:B1 *265:93 1.98839e-05
8 *1281:B1 *272:57 0.000115082
9 *219:6 *1281:B1 6.62752e-05
*RES
1 *1280:X *1281:B1 40.2429 
*END

*D_NET *239 0.0198317
*CONN
*I *1356:A I *D sky130_fd_sc_hd__clkbuf_16
*I *1355:A I *D sky130_fd_sc_hd__clkbuf_16
*I *1352:A I *D sky130_fd_sc_hd__clkbuf_16
*I *1351:A I *D sky130_fd_sc_hd__clkbuf_16
*I *1354:A I *D sky130_fd_sc_hd__clkbuf_16
*I *1353:A I *D sky130_fd_sc_hd__clkbuf_16
*I *1350:A I *D sky130_fd_sc_hd__clkbuf_16
*I *1349:A I *D sky130_fd_sc_hd__clkbuf_16
*I *1348:X O *D sky130_fd_sc_hd__clkbuf_16
*CAP
1 *1356:A 6.44504e-05
2 *1355:A 0
3 *1352:A 0
4 *1351:A 5.0397e-05
5 *1354:A 0.000104105
6 *1353:A 0
7 *1350:A 6.09222e-05
8 *1349:A 7.47238e-05
9 *1348:X 0.00017944
10 *239:179 0.000652605
11 *239:170 0.000653078
12 *239:161 0.000140667
13 *239:153 0.00068518
14 *239:124 0.000476559
15 *239:122 0.00106509
16 *239:110 0.00152076
17 *239:105 0.000323146
18 *239:89 0.000688213
19 *239:73 0.00102999
20 *239:51 7.89899e-05
21 *239:35 0.000795907
22 *239:33 0.00148746
23 *239:23 0.00218356
24 *239:10 0.00111816
25 *1349:A *240:24 7.19623e-05
26 *1350:A *1173:B 8.61317e-05
27 *1351:A *242:12 2.68557e-05
28 *1356:A *247:10 6.53286e-05
29 *239:23 *1075:A 2.89114e-05
30 *239:23 *1345:CLK 0
31 *239:23 *1367:A 0
32 *239:23 *273:97 2.24079e-05
33 *239:33 *1244:B1 7.63851e-05
34 *239:33 *1251:B1_N 0.000110844
35 *239:33 *273:78 0.000259782
36 *239:33 *273:97 7.65336e-06
37 *239:35 *1210:B 8.22475e-05
38 *239:35 *1244:B1 8.22802e-05
39 *239:35 *310:12 0
40 *239:35 *373:14 9.21958e-05
41 *239:35 *373:20 0.000207408
42 *239:51 *1173:B 1.12387e-05
43 *239:73 *1253:B1 0
44 *239:73 *1254:A1 3.2534e-05
45 *239:73 *1336:CLK 1.76135e-05
46 *239:73 *244:77 8.21532e-05
47 *239:89 *1267:A1 0.000190149
48 *239:89 *1336:CLK 0.000120402
49 *239:105 *1430:A 3.19049e-05
50 *239:110 *1430:A 0.000225604
51 *239:122 *1153:A 0
52 *239:122 *1187:A 4.64488e-06
53 *239:122 *370:22 0
54 *239:124 *340:10 6.75007e-05
55 *239:153 *1175:A1 6.05161e-06
56 *239:153 *246:46 0.000107503
57 *239:161 *1178:A1 0
58 *239:179 *1178:A1 0
59 *239:179 *246:46 6.51946e-05
60 *239:179 *247:10 0.000142032
61 *239:179 *354:10 5.97719e-05
62 *239:179 *354:20 0.000115072
63 *1092:A *239:124 6.94441e-06
64 *1094:B *239:124 0.00010904
65 *1094:D *239:124 0.000109987
66 *1112:B1 *239:122 4.93223e-05
67 *1150:A3 *239:122 6.22185e-05
68 *1150:A3 *239:124 0.00010209
69 *1175:A2 *239:153 7.8327e-05
70 *1175:B1 *239:122 6.90367e-05
71 *1175:B1 *239:153 4.2884e-05
72 *1176:A2 *239:122 8.82021e-05
73 *1182:B1 *239:153 2.94103e-05
74 *1184:A2 *239:153 1.90111e-05
75 *1184:B1 *239:153 1.76135e-05
76 *1212:B *239:35 7.23529e-05
77 *1250:B1_N *239:33 5.03772e-05
78 *1252:A2 *239:33 0
79 *1254:B1 *239:23 8.86413e-05
80 *1254:B1 *239:33 0.000195396
81 *1255:B *239:73 0
82 *1256:A3 *239:73 0
83 *1307:D *239:153 9.10431e-06
84 *1307:D *239:161 2.89016e-05
85 *1307:D *239:170 1.21258e-05
86 *1331:D *239:33 5.01193e-05
87 *1336:D *239:89 5.10822e-05
88 *1345:D *239:23 1.52978e-05
89 *3:30 *239:23 0
90 *3:30 *239:73 0.000456799
91 *3:30 *239:89 0.000623241
92 *54:8 *239:23 0
93 *108:8 *239:124 4.0698e-05
94 *114:10 *239:124 6.01956e-05
95 *115:10 *239:122 0
96 *117:16 *239:122 0.000316301
97 *117:16 *239:124 7.26459e-05
98 *124:14 *239:124 0.000105317
99 *129:20 *239:10 1.57393e-05
100 *129:20 *239:23 0.000118201
101 *129:20 *239:105 8.12432e-05
102 *129:20 *239:110 4.37731e-05
103 *169:14 *239:110 8.36403e-05
104 *169:14 *239:122 2.94103e-05
105 *169:14 *239:153 7.38982e-05
106 *170:8 *239:122 0
107 *170:12 *239:153 0.000390492
108 *185:38 *239:179 0
109 *185:47 *239:179 0
110 *185:58 *239:179 0
111 *219:35 *239:33 2.94103e-05
112 *219:35 *239:89 0
113 *219:67 *239:89 0
114 *220:21 *239:73 0
*RES
1 *1348:X *239:10 11.2152 
2 *239:10 *239:23 24.942 
3 *239:23 *239:33 20.25 
4 *239:33 *239:35 14.6964 
5 *239:35 *1349:A 15.1571 
6 *239:33 *239:51 4.85714 
7 *239:51 *1350:A 10.8357 
8 *239:23 *239:73 15.1607 
9 *239:73 *1353:A 13.8 
10 *239:73 *239:89 18.3661 
11 *239:89 *1354:A 10.8625 
12 *1348:X *239:105 10.6795 
13 *239:105 *239:110 5.85268 
14 *239:110 *239:122 18.3929 
15 *239:122 *239:124 11.3571 
16 *239:124 *1351:A 14.7464 
17 *239:122 *1352:A 13.8 
18 *239:110 *239:153 18.0893 
19 *239:153 *239:161 5.875 
20 *239:161 *1355:A 9.3 
21 *239:161 *239:170 5.44643 
22 *239:170 *239:179 16.4732 
23 *239:179 *1356:A 10.8089 
*END

*D_NET *240 0.0112647
*CONN
*I *1327:CLK I *D sky130_fd_sc_hd__dfxtp_2
*I *1324:CLK I *D sky130_fd_sc_hd__dfxtp_2
*I *1321:CLK I *D sky130_fd_sc_hd__dfxtp_2
*I *1320:CLK I *D sky130_fd_sc_hd__dfxtp_2
*I *1318:CLK I *D sky130_fd_sc_hd__dfxtp_2
*I *1323:CLK I *D sky130_fd_sc_hd__dfxtp_2
*I *1322:CLK I *D sky130_fd_sc_hd__dfxtp_2
*I *1325:CLK I *D sky130_fd_sc_hd__dfxtp_2
*I *1319:CLK I *D sky130_fd_sc_hd__dfxtp_2
*I *1349:X O *D sky130_fd_sc_hd__clkbuf_16
*CAP
1 *1327:CLK 9.81566e-05
2 *1324:CLK 7.04019e-05
3 *1321:CLK 0
4 *1320:CLK 7.4839e-05
5 *1318:CLK 9.6403e-05
6 *1323:CLK 0.000172491
7 *1322:CLK 0.000419335
8 *1325:CLK 0.000503667
9 *1319:CLK 6.23167e-05
10 *1349:X 0.000715292
11 *240:77 0.000578932
12 *240:73 0.000967793
13 *240:51 0.000665611
14 *240:47 0.00105138
15 *240:32 0.0010514
16 *240:28 0.000364193
17 *240:24 0.000914679
18 *1318:CLK *371:37 0
19 *1319:CLK *1208:A_N 0.000127939
20 *1323:CLK *378:52 0.000170964
21 *1324:CLK *1423:A 2.97489e-05
22 *1327:CLK *1237:B 3.02892e-05
23 *240:24 *1210:A 0.00030541
24 *240:24 *1210:B 0.000347972
25 *240:24 *1211:D 0.000175117
26 *240:32 *1423:A 3.73361e-05
27 *240:32 *381:28 5.4959e-05
28 *240:47 *1217:B1_N 0
29 *240:47 *1423:A 0
30 *240:47 *263:29 0
31 *240:47 *263:33 0
32 *240:51 *1421:A 0.000150632
33 *240:51 *263:33 0
34 *240:73 *1421:A 9.90431e-05
35 *240:73 *378:65 0.000185118
36 *240:73 *379:14 0.000140088
37 *240:77 *1221:D 0.000235154
38 *1212:D *240:24 0.000357962
39 *1220:C *1318:CLK 1.17968e-05
40 *1225:B *240:51 0.000126446
41 *1231:D *240:73 9.58181e-05
42 *1232:A_N *240:47 0.000148911
43 *1320:D *1318:CLK 0.00015234
44 *1320:D *1320:CLK 9.41642e-05
45 *1321:D *240:77 5.95099e-05
46 *1322:D *1322:CLK 1.64343e-05
47 *1325:D *1325:CLK 4.87669e-06
48 *1349:A *240:24 7.19623e-05
49 *201:30 *240:73 0.000227797
*RES
1 *1349:X *1319:CLK 29.2429 
2 *1349:X *240:24 28.3 
3 *240:24 *240:28 7.35714 
4 *240:28 *240:32 3.00893 
5 *240:32 *1325:CLK 15.2911 
6 *240:32 *240:47 11.3304 
7 *240:47 *240:51 6.75 
8 *240:51 *1322:CLK 15.6036 
9 *240:51 *1323:CLK 13.1393 
10 *240:47 *240:73 16.125 
11 *240:73 *240:77 7.94643 
12 *240:77 *1318:CLK 20.55 
13 *240:77 *1320:CLK 10.6571 
14 *240:73 *1321:CLK 9.3 
15 *240:28 *1324:CLK 10.6571 
16 *240:24 *1327:CLK 15.7464 
*END

*D_NET *241 0.00855037
*CONN
*I *1305:CLK I *D sky130_fd_sc_hd__dfxtp_2
*I *1306:CLK I *D sky130_fd_sc_hd__dfxtp_2
*I *1331:CLK I *D sky130_fd_sc_hd__dfxtp_2
*I *1357:A I *D sky130_fd_sc_hd__clkbuf_4
*I *1346:CLK I *D sky130_fd_sc_hd__dfxtp_2
*I *1329:CLK I *D sky130_fd_sc_hd__dfxtp_2
*I *1328:CLK I *D sky130_fd_sc_hd__dfxtp_2
*I *1304:CLK I *D sky130_fd_sc_hd__dfxtp_2
*I *1326:CLK I *D sky130_fd_sc_hd__dfxtp_2
*I *1350:X O *D sky130_fd_sc_hd__clkbuf_16
*CAP
1 *1305:CLK 3.81116e-05
2 *1306:CLK 0.00016804
3 *1331:CLK 4.05366e-05
4 *1357:A 0.000321699
5 *1346:CLK 0.000280115
6 *1329:CLK 2.23854e-05
7 *1328:CLK 2.23854e-05
8 *1304:CLK 9.07586e-05
9 *1326:CLK 0.000239258
10 *1350:X 3.81116e-05
11 *241:75 0.00066109
12 *241:73 0.00068009
13 *241:24 0.000612488
14 *241:20 0.000695687
15 *241:18 0.000854461
16 *241:8 0.000812332
17 *241:6 0.000304169
18 *1304:CLK *1172:B 5.03787e-05
19 *1326:CLK *1172:B 1.19309e-05
20 *1346:CLK *1107:A 5.80706e-06
21 *1346:CLK *372:14 0
22 *241:8 *1107:A 1.3142e-05
23 *241:8 *1173:B 0
24 *241:8 *372:14 0
25 *241:8 *372:38 0
26 *241:18 *1173:A 3.18676e-05
27 *241:18 *372:8 0.00047536
28 *241:18 *373:10 7.84241e-05
29 *241:20 *372:8 9.74665e-05
30 *241:24 *1172:A 0.000105163
31 *241:24 *1240:A 9.90431e-05
32 *241:24 *273:35 0.000359997
33 *241:73 *273:105 0.000221137
34 *241:73 *372:38 0
35 *1214:B *1328:CLK 0
36 *1214:B *241:24 0.00024162
37 *1238:C *1326:CLK 1.00375e-05
38 *1241:B1_N *241:24 4.8843e-05
39 *1244:A2 *241:73 0
40 *1304:D *1304:CLK 0.000173133
41 *1304:D *1326:CLK 1.02504e-05
42 *1305:D *1305:CLK 6.05161e-06
43 *1305:D *241:8 0.000125724
44 *1305:D *241:73 1.02504e-05
45 *1326:D *1326:CLK 0.000154762
46 *1328:D *241:20 0.000272682
47 *1329:D *241:18 1.64343e-05
48 *1331:D *241:75 1.64343e-05
49 *1346:D *1346:CLK 0
50 *196:18 *241:20 3.27076e-05
51 *197:8 *1326:CLK 0
*RES
1 *1350:X *241:6 13.8 
2 *241:6 *241:8 1.94643 
3 *241:8 *241:18 14.3393 
4 *241:18 *241:20 7.10714 
5 *241:20 *241:24 12.0179 
6 *241:24 *1326:CLK 19.0857 
7 *241:24 *1304:CLK 16.2821 
8 *241:20 *1328:CLK 9.72857 
9 *241:18 *1329:CLK 9.72857 
10 *241:8 *1346:CLK 18.5321 
11 *241:6 *241:73 9.78571 
12 *241:73 *241:75 5.01339 
13 *241:75 *1357:A 14.0009 
14 *241:75 *1331:CLK 10.3045 
15 *241:73 *1306:CLK 11.8893 
16 *1350:X *1305:CLK 19.1357 
*END

*D_NET *242 0.010685
*CONN
*I *1290:CLK I *D sky130_fd_sc_hd__dfxtp_2
*I *1289:CLK I *D sky130_fd_sc_hd__dfxtp_2
*I *1358:A I *D sky130_fd_sc_hd__clkbuf_4
*I *1286:CLK I *D sky130_fd_sc_hd__dfxtp_2
*I *1282:CLK I *D sky130_fd_sc_hd__dfxtp_2
*I *1284:CLK I *D sky130_fd_sc_hd__dfxtp_2
*I *1285:CLK I *D sky130_fd_sc_hd__dfxtp_2
*I *1288:CLK I *D sky130_fd_sc_hd__dfxtp_2
*I *1287:CLK I *D sky130_fd_sc_hd__dfxtp_2
*I *1351:X O *D sky130_fd_sc_hd__clkbuf_16
*CAP
1 *1290:CLK 0
2 *1289:CLK 0.000166454
3 *1358:A 0
4 *1286:CLK 0
5 *1282:CLK 0.000247737
6 *1284:CLK 0
7 *1285:CLK 0.000181287
8 *1288:CLK 0.000659607
9 *1287:CLK 2.23854e-05
10 *1351:X 0.00142899
11 *242:98 0.00073286
12 *242:61 0.000628845
13 *242:48 0.0010864
14 *242:44 0.000524007
15 *242:24 0.00110308
16 *242:18 0.000705054
17 *242:12 0.00114655
18 *1282:CLK *1126:A2 0.000242324
19 *1282:CLK *1282:D 2.59355e-05
20 *1282:CLK *343:23 1.21258e-05
21 *1285:CLK *1133:B 0
22 *1288:CLK *1395:A 2.89114e-05
23 *1288:CLK *350:6 0.000161868
24 *1288:CLK *350:37 0.000125057
25 *1289:CLK *348:14 5.23142e-05
26 *242:12 *1130:A1 0
27 *242:18 *1135:A1 0
28 *242:18 *351:33 0.000225609
29 *242:18 *351:43 1.37292e-05
30 *242:18 *352:38 0.00015134
31 *242:24 *1135:A1 0.00014285
32 *242:61 *1133:B 0
33 *242:61 *1218:C 0
34 *242:61 *264:39 0
35 *242:61 *264:41 0
36 *242:61 *376:10 0.000128154
37 *1121:D *242:18 0.00012401
38 *1143:B *1289:CLK 0
39 *1286:D *242:24 0
40 *1287:D *1288:CLK 1.64343e-05
41 *1290:D *242:98 1.64343e-05
42 *1351:A *242:12 2.68557e-05
43 *108:8 *242:12 0
44 *134:12 *1289:CLK 9.24056e-05
45 *137:20 *1288:CLK 7.82051e-05
46 *137:20 *242:24 0.000128518
47 *137:26 *242:24 0.000101111
48 *137:37 *242:18 6.48006e-05
49 *137:37 *242:24 2.19684e-05
50 *139:22 *1282:CLK 7.07427e-05
*RES
1 *1351:X *242:12 28.5857 
2 *242:12 *242:18 11.3571 
3 *242:18 *242:24 13.0357 
4 *242:24 *1287:CLK 9.72857 
5 *242:24 *1288:CLK 21.8893 
6 *242:18 *242:44 4.5 
7 *242:44 *242:48 12.4286 
8 *242:48 *1285:CLK 16.8893 
9 *242:48 *242:61 7.41071 
10 *242:61 *1284:CLK 13.8 
11 *242:61 *1282:CLK 19.425 
12 *242:44 *1286:CLK 9.3 
13 *242:12 *1358:A 9.3 
14 *1351:X *242:98 17.9607 
15 *242:98 *1289:CLK 21.9071 
16 *242:98 *1290:CLK 9.3 
*END

*D_NET *243 0.0111812
*CONN
*I *1292:CLK I *D sky130_fd_sc_hd__dfxtp_2
*I *1291:CLK I *D sky130_fd_sc_hd__dfxtp_2
*I *1293:CLK I *D sky130_fd_sc_hd__dfxtp_2
*I *1295:CLK I *D sky130_fd_sc_hd__dfxtp_2
*I *1359:A I *D sky130_fd_sc_hd__clkbuf_4
*I *1344:CLK I *D sky130_fd_sc_hd__dfxtp_2
*I *1294:CLK I *D sky130_fd_sc_hd__dfxtp_2
*I *1283:CLK I *D sky130_fd_sc_hd__dfxtp_2
*I *1330:CLK I *D sky130_fd_sc_hd__dfxtp_2
*I *1352:X O *D sky130_fd_sc_hd__clkbuf_16
*CAP
1 *1292:CLK 0
2 *1291:CLK 4.65142e-05
3 *1293:CLK 0.000222619
4 *1295:CLK 4.85225e-05
5 *1359:A 0
6 *1344:CLK 0.000293065
7 *1294:CLK 0
8 *1283:CLK 0
9 *1330:CLK 0.000487043
10 *1352:X 0.00036348
11 *243:71 0.000593605
12 *243:65 0.000952332
13 *243:40 0.00047809
14 *243:24 0.000653797
15 *243:20 0.000761384
16 *243:18 0.000459096
17 *243:14 0.000699855
18 *243:10 0.000430489
19 *1291:CLK *346:8 4.37451e-05
20 *1293:CLK *1113:B 0.000146474
21 *1293:CLK *344:14 1.33125e-05
22 *1330:CLK *1128:A 5.23735e-05
23 *1330:CLK *282:6 0.000140243
24 *1330:CLK *342:8 8.43535e-06
25 *1344:CLK *1111:A1 4.73656e-05
26 *1344:CLK *1152:A1 0.000179656
27 *1344:CLK *266:38 4.01768e-05
28 *243:10 *1071:A 4.25523e-05
29 *243:14 *1071:A 9.24395e-05
30 *243:20 *342:8 0.000166951
31 *243:24 *342:8 0.000181936
32 *243:40 *1122:A 0
33 *243:40 *1152:A1 0.000179656
34 *243:65 *1091:A_N 0.000241839
35 *243:65 *1091:C 0.000284909
36 *243:65 *1101:B 2.89016e-05
37 *243:65 *346:8 7.01807e-05
38 *243:65 *346:21 5.33005e-05
39 *243:71 *1113:B 0.000173804
40 *1111:A2 *1344:CLK 0
41 *1112:A3 *1344:CLK 0.000208402
42 *1128:B *1330:CLK 2.85234e-05
43 *1144:B *243:71 0.000103253
44 *1145:A *243:71 2.6949e-05
45 *1145:B *243:71 0.000179656
46 *1147:A *243:71 0.00021158
47 *1148:A *243:71 0
48 *1149:B *243:71 1.78447e-05
49 *1150:A3 *243:10 1.05947e-05
50 *1150:C1 *243:71 0.000128154
51 *1151:D1 *243:71 6.74911e-05
52 *1152:C1 *243:18 5.03772e-05
53 *1152:C1 *243:20 0.000117432
54 *1152:C1 *243:65 2.89114e-05
55 *1283:D *243:24 1.64343e-05
56 *1292:D *243:10 2.05938e-05
57 *1293:D *1293:CLK 6.75967e-05
58 *1295:D *1295:CLK 9.60939e-05
59 *1344:D *1344:CLK 0.00013001
60 *114:10 *243:18 3.09985e-05
61 *114:10 *243:20 4.58194e-05
62 *114:10 *243:65 0.000124689
63 *115:10 *243:10 7.48356e-05
64 *115:10 *243:14 9.24395e-05
65 *116:29 *1293:CLK 0
66 *124:30 *1344:CLK 0.000374132
67 *124:30 *243:40 0.000250201
*RES
1 *1352:X *243:10 19.1571 
2 *243:10 *243:14 6.75 
3 *243:14 *243:18 1.375 
4 *243:18 *243:20 8.75 
5 *243:20 *243:24 3.83929 
6 *243:24 *1330:CLK 18.05 
7 *243:24 *1283:CLK 9.3 
8 *243:20 *243:40 9.48214 
9 *243:40 *1294:CLK 13.8 
10 *243:40 *1344:CLK 22.1929 
11 *243:18 *1359:A 9.3 
12 *243:14 *243:65 12.8571 
13 *243:65 *243:71 14.1607 
14 *243:71 *1295:CLK 14.7464 
15 *243:71 *1293:CLK 17.8357 
16 *243:65 *1291:CLK 10.2464 
17 *243:10 *1292:CLK 13.8 
*END

*D_NET *244 0.0118682
*CONN
*I *1336:CLK I *D sky130_fd_sc_hd__dfxtp_2
*I *1301:CLK I *D sky130_fd_sc_hd__dfxtp_2
*I *1332:CLK I *D sky130_fd_sc_hd__dfxtp_2
*I *1345:CLK I *D sky130_fd_sc_hd__dfxtp_2
*I *1333:CLK I *D sky130_fd_sc_hd__dfxtp_2
*I *1334:CLK I *D sky130_fd_sc_hd__dfxtp_2
*I *1340:CLK I *D sky130_fd_sc_hd__dfxtp_2
*I *1341:CLK I *D sky130_fd_sc_hd__dfxtp_2
*I *1335:CLK I *D sky130_fd_sc_hd__dfxtp_2
*I *1353:X O *D sky130_fd_sc_hd__clkbuf_16
*CAP
1 *1336:CLK 0.000118599
2 *1301:CLK 2.23854e-05
3 *1332:CLK 3.72884e-05
4 *1345:CLK 0.000494059
5 *1333:CLK 0
6 *1334:CLK 0
7 *1340:CLK 9.47756e-05
8 *1341:CLK 0.000320034
9 *1335:CLK 0.000478685
10 *1353:X 0.00014055
11 *244:85 0.000780891
12 *244:77 0.000664662
13 *244:71 0.000846456
14 *244:39 0.000594491
15 *244:28 0.000856407
16 *244:24 0.000822581
17 *244:16 0.00109441
18 *244:6 0.000945541
19 *1335:CLK *265:41 0
20 *1341:CLK *1274:A 4.88637e-05
21 *1341:CLK *1275:A3 5.33005e-05
22 *1341:CLK *1275:C1 0.000156902
23 *1345:CLK *1104:B 0.000142856
24 *1345:CLK *1109:A 0.000535231
25 *1345:CLK *1376:A 0
26 *1345:CLK *248:29 8.86354e-05
27 *1345:CLK *266:12 4.72818e-05
28 *244:16 *1082:S 0.000101545
29 *244:16 *386:6 3.14163e-05
30 *244:16 *386:12 2.79421e-05
31 *244:85 *1301:D 3.32132e-06
32 *244:85 *1332:D 0
33 tx *1335:CLK 2.49459e-05
34 tx *244:39 6.16864e-05
35 *1110:A2 *1345:CLK 7.48356e-05
36 *1255:B *244:77 2.42082e-05
37 *1259:C *244:24 5.52302e-05
38 *1260:B1 *1335:CLK 0
39 *1263:A2 *1335:CLK 0
40 *1265:A1 *1335:CLK 0
41 *1274:B *1341:CLK 5.71472e-05
42 *1275:B1 *1341:CLK 4.59075e-05
43 *1306:D *1345:CLK 0.00025263
44 *1333:D *244:16 0.000117228
45 *1333:D *244:24 0.000100261
46 *1334:D *244:24 8.65694e-05
47 *1335:D *1335:CLK 4.1331e-06
48 *1340:D *1341:CLK 2.27416e-05
49 *1371:A *1345:CLK 0
50 *1377:A *244:85 0
51 *1399:A *244:77 0.000140933
52 *1433:A *1335:CLK 0.000163442
53 *1433:A *244:39 0.000198698
54 *1435:A *1340:CLK 0.000202842
55 *1435:A *244:39 0.000163442
56 *54:8 *1345:CLK 0.000138804
57 *102:10 *244:39 0
58 *102:25 *1341:CLK 6.17358e-05
59 *219:35 *1336:CLK 0
60 *219:35 *244:16 0.000101545
61 *219:35 *244:77 0
62 *239:23 *1345:CLK 0
63 *239:73 *1336:CLK 1.76135e-05
64 *239:73 *244:77 8.21532e-05
65 *239:89 *1336:CLK 0.000120402
*RES
1 *1353:X *244:6 10.6571 
2 *244:6 *244:16 17.0536 
3 *244:16 *244:24 10.8571 
4 *244:24 *244:28 7.5 
5 *244:28 *1335:CLK 23.3357 
6 *244:28 *244:39 4.98214 
7 *244:39 *1341:CLK 20.4964 
8 *244:39 *1340:CLK 16.3536 
9 *244:24 *1334:CLK 9.3 
10 *244:16 *1333:CLK 9.3 
11 *244:6 *244:71 8.32143 
12 *244:71 *244:77 11.3929 
13 *244:77 *244:85 8.23214 
14 *244:85 *1345:CLK 27.9429 
15 *244:85 *1332:CLK 14.3357 
16 *244:77 *1301:CLK 9.72857 
17 *244:71 *1336:CLK 16.9607 
*END

*D_NET *245 0.0113454
*CONN
*I *1337:CLK I *D sky130_fd_sc_hd__dfxtp_2
*I *1302:CLK I *D sky130_fd_sc_hd__dfxtp_2
*I *1338:CLK I *D sky130_fd_sc_hd__dfxtp_2
*I *1339:CLK I *D sky130_fd_sc_hd__dfxtp_2
*I *1343:CLK I *D sky130_fd_sc_hd__dfxtp_2
*I *1342:CLK I *D sky130_fd_sc_hd__dfxtp_2
*I *1316:CLK I *D sky130_fd_sc_hd__dfxtp_2
*I *1297:CLK I *D sky130_fd_sc_hd__dfxtp_2
*I *1360:A I *D sky130_fd_sc_hd__clkbuf_4
*I *1354:X O *D sky130_fd_sc_hd__clkbuf_16
*CAP
1 *1337:CLK 0
2 *1302:CLK 8.58305e-05
3 *1338:CLK 0
4 *1339:CLK 2.37855e-05
5 *1343:CLK 0
6 *1342:CLK 0.000265206
7 *1316:CLK 0.000386482
8 *1297:CLK 0.000879195
9 *1360:A 0
10 *1354:X 4.26984e-05
11 *245:92 0.000679363
12 *245:61 0.000924059
13 *245:57 0.00117386
14 *245:55 0.00129506
15 *245:38 0.000637672
16 *245:14 0.001091
17 *245:8 0.000252692
18 *245:6 4.26984e-05
19 *1297:CLK *1079:A0 3.57315e-05
20 *1297:CLK *1267:A3 7.43578e-06
21 *1297:CLK *1267:C1 4.8843e-05
22 *1297:CLK *1297:D 5.58666e-05
23 *1297:CLK *252:10 5.52302e-05
24 *1297:CLK *268:31 0.000150495
25 *1316:CLK *1266:A 0.000144773
26 *1316:CLK *1270:A 1.68597e-05
27 *1342:CLK *1279:A1 0.000145653
28 *245:14 *1268:A 0.000199292
29 *245:14 *265:108 0.000137983
30 *245:38 *1268:A 0.000126439
31 *245:55 *1268:A 0.000453621
32 *245:57 *392:8 1.40415e-05
33 tx_busy *1342:CLK 0.000115485
34 *1266:B *1316:CLK 0.000388822
35 *1267:B1 *1297:CLK 0.000176226
36 *1268:B *245:55 0.000383798
37 *1272:B *245:61 9.7659e-05
38 *1273:B1 *245:57 6.91728e-05
39 *1273:B1 *245:61 1.03146e-05
40 *1338:D *245:92 0.000272689
41 *1339:D *245:57 0.000143447
42 *1343:D *245:61 1.64343e-05
43 *1443:A *1342:CLK 1.33343e-05
44 *3:30 *1297:CLK 0.000102434
45 *18:15 *245:55 9.21418e-06
46 *102:92 *1342:CLK 0
47 *219:67 *245:14 7.49277e-05
48 *219:67 *245:38 6.39901e-05
49 *219:67 *245:55 3.55407e-05
*RES
1 *1354:X *245:6 9.83571 
2 *245:6 *245:8 4.5 
3 *245:8 *245:14 9.33929 
4 *245:14 *1360:A 9.3 
5 *245:14 *1297:CLK 31.8 
6 *245:8 *245:38 1.64286 
7 *245:38 *1316:CLK 20.1214 
8 *245:38 *245:55 10.6964 
9 *245:55 *245:57 7.92857 
10 *245:57 *245:61 9.89286 
11 *245:61 *1342:CLK 24.0857 
12 *245:61 *1343:CLK 9.3 
13 *245:57 *1339:CLK 9.72857 
14 *245:55 *245:92 9.17857 
15 *245:92 *1338:CLK 9.3 
16 *245:92 *1302:CLK 10.6571 
17 *245:6 *1337:CLK 9.3 
*END

*D_NET *246 0.010136
*CONN
*I *1310:CLK I *D sky130_fd_sc_hd__dfxtp_2
*I *1361:A I *D sky130_fd_sc_hd__clkbuf_4
*I *1307:CLK I *D sky130_fd_sc_hd__dfxtp_2
*I *1308:CLK I *D sky130_fd_sc_hd__dfxtp_2
*I *1311:CLK I *D sky130_fd_sc_hd__dfxtp_2
*I *1347:CLK I *D sky130_fd_sc_hd__dfxtp_2
*I *1315:CLK I *D sky130_fd_sc_hd__dfxtp_2
*I *1296:CLK I *D sky130_fd_sc_hd__dfxtp_2
*I *1309:CLK I *D sky130_fd_sc_hd__dfxtp_2
*I *1355:X O *D sky130_fd_sc_hd__clkbuf_16
*CAP
1 *1310:CLK 0.000143326
2 *1361:A 0
3 *1307:CLK 0
4 *1308:CLK 0.000249307
5 *1311:CLK 0
6 *1347:CLK 8.85955e-05
7 *1315:CLK 4.42026e-05
8 *1296:CLK 2.84356e-05
9 *1309:CLK 0.000215225
10 *1355:X 0.000143326
11 *246:76 0.000565506
12 *246:56 0.000396084
13 *246:50 0.00094495
14 *246:46 0.000556287
15 *246:38 0.000520333
16 *246:12 0.000653246
17 *246:6 0.000739095
18 *1296:CLK *1191:A1 4.08637e-05
19 *1308:CLK *1179:A 0
20 *1308:CLK *1207:C1 0
21 *1308:CLK *1369:A 9.71197e-05
22 *1308:CLK *269:25 0.000396905
23 *1309:CLK *1068:A 2.16719e-05
24 *1309:CLK *1157:C1 4.49293e-05
25 *1309:CLK *1186:A 0.000333493
26 *1309:CLK *355:8 2.59355e-05
27 *1347:CLK *1367:A 0
28 *1347:CLK *266:81 0.000175512
29 *246:12 *1190:B 3.17163e-05
30 *246:12 *1191:A1 0.000296024
31 *246:12 *271:107 0.000120509
32 *246:12 *271:118 0.000102218
33 *246:12 *353:8 2.89016e-05
34 *246:12 *353:21 0.000106299
35 *246:38 *353:21 5.33882e-05
36 *246:38 *354:20 0.00014183
37 *246:46 *1178:A1 3.34672e-05
38 *246:46 *354:20 5.52302e-05
39 *246:56 *1099:A1 7.83659e-05
40 *246:56 *1193:A1 0
41 *246:56 *1370:A 0
42 *246:56 *266:102 0.000158577
43 *246:76 *1179:A 0
44 *246:76 *1193:A1 0
45 *1099:A3 *246:56 5.33005e-05
46 *1177:A *246:50 0.000227539
47 *1178:B1 *246:50 5.33433e-05
48 *1182:B1 *246:46 0
49 *1185:B *1309:CLK 0
50 *1186:C *1309:CLK 2.89016e-05
51 *1193:A2 *1308:CLK 0.000165254
52 *1193:A2 *246:76 0.000200413
53 *1203:A2 *246:56 0.000173505
54 *1203:A3 *246:56 5.52238e-05
55 *1203:B1 *246:56 5.52238e-05
56 *1307:D *246:46 0.00015134
57 *1310:D *246:12 5.52302e-05
58 *1315:D *1315:CLK 5.71472e-05
59 *93:12 *1309:CLK 0.000125717
60 *119:50 *1309:CLK 0
61 *159:10 *1315:CLK 7.77652e-05
62 *159:10 *1347:CLK 0
63 *159:10 *246:56 0.000165377
64 *173:12 *246:50 0.000140933
65 *173:12 *246:56 9.69119e-06
66 *173:12 *246:76 8.27403e-05
67 *173:36 *246:76 5.16489e-05
68 *179:39 *246:38 0.000236814
69 *185:12 *246:50 0.000165278
70 *185:38 *246:12 0
71 *185:38 *246:38 0
72 *185:38 *246:46 0
73 *239:153 *246:46 0.000107503
74 *239:179 *246:46 6.51946e-05
*RES
1 *1355:X *246:6 13.8 
2 *246:6 *246:12 14.3571 
3 *246:12 *1309:CLK 23.8179 
4 *246:12 *1296:CLK 9.83571 
5 *246:6 *246:38 11.3036 
6 *246:38 *246:46 13.9107 
7 *246:46 *246:50 12.4286 
8 *246:50 *246:56 11.5893 
9 *246:56 *1315:CLK 10.6571 
10 *246:56 *1347:CLK 20.55 
11 *246:50 *246:76 7.10714 
12 *246:76 *1311:CLK 13.8 
13 *246:76 *1308:CLK 20.3 
14 *246:46 *1307:CLK 9.3 
15 *246:38 *1361:A 9.3 
16 *1355:X *1310:CLK 20.7786 
*END

*D_NET *247 0.00975132
*CONN
*I *1314:CLK I *D sky130_fd_sc_hd__dfxtp_2
*I *1300:CLK I *D sky130_fd_sc_hd__dfxtp_2
*I *1313:CLK I *D sky130_fd_sc_hd__dfxtp_2
*I *1299:CLK I *D sky130_fd_sc_hd__dfxtp_2
*I *1303:CLK I *D sky130_fd_sc_hd__dfxtp_2
*I *1298:CLK I *D sky130_fd_sc_hd__dfxtp_2
*I *1317:CLK I *D sky130_fd_sc_hd__dfxtp_2
*I *1312:CLK I *D sky130_fd_sc_hd__dfxtp_2
*I *1362:A I *D sky130_fd_sc_hd__clkbuf_4
*I *1356:X O *D sky130_fd_sc_hd__clkbuf_16
*CAP
1 *1314:CLK 0
2 *1300:CLK 0.000252582
3 *1313:CLK 0
4 *1299:CLK 0.000298748
5 *1303:CLK 0
6 *1298:CLK 4.61654e-05
7 *1317:CLK 0
8 *1312:CLK 0.000792363
9 *1362:A 0
10 *1356:X 0.000840212
11 *247:98 0.000575514
12 *247:71 0.000332831
13 *247:64 0.000809434
14 *247:42 9.0672e-05
15 *247:21 0.000836869
16 *247:19 0.00105725
17 *247:10 0.000799175
18 *1299:CLK *1170:A 0
19 *1299:CLK *1299:D 3.9846e-05
20 *1299:CLK *291:12 0.000184745
21 *1300:CLK *1201:A1 0.000139087
22 *1300:CLK *291:12 0.000153054
23 *1312:CLK *1298:D 9.14355e-05
24 *1312:CLK *1382:A 0
25 *1312:CLK *253:10 0.000397911
26 *247:19 *1206:B1_N 0
27 *247:19 *267:31 0
28 *247:64 *1298:D 0.000151333
29 *247:64 *1303:D 1.64343e-05
30 *247:64 *253:10 0
31 *247:64 *258:8 0.000402784
32 *247:98 *1199:A 9.41642e-05
33 *1168:B *1312:CLK 0.000179018
34 *1194:A1 *247:10 0
35 *1197:B1 *1299:CLK 5.96516e-05
36 *1199:C *247:98 7.77751e-05
37 *1201:A2 *247:98 9.71197e-05
38 *1204:A1 *1312:CLK 1.02504e-05
39 *1313:D *1299:CLK 0.000201127
40 *1314:D *1300:CLK 5.52238e-05
41 *1317:D *247:19 0
42 *1356:A *247:10 6.53286e-05
43 *158:43 *1299:CLK 5.52302e-05
44 *158:53 *247:19 0
45 *158:53 *247:64 0.000228558
46 *158:63 *247:19 0
47 *159:38 *1312:CLK 2.26327e-05
48 *172:17 *247:10 0
49 *179:89 *1300:CLK 0.000154762
50 *239:179 *247:10 0.000142032
*RES
1 *1356:X *247:10 20.9071 
2 *247:10 *1362:A 13.8 
3 *247:10 *247:19 4.67857 
4 *247:19 *247:21 4.5 
5 *247:21 *1312:CLK 31.3 
6 *247:21 *247:42 0.964286 
7 *247:42 *1317:CLK 9.3 
8 *247:42 *1298:CLK 10.2643 
9 *247:19 *247:64 19.1964 
10 *247:64 *1303:CLK 9.3 
11 *247:64 *247:71 0.535714 
12 *247:71 *1299:CLK 25.0857 
13 *247:71 *1313:CLK 9.3 
14 *1356:X *247:98 14.675 
15 *247:98 *1300:CLK 24.0857 
16 *247:98 *1314:CLK 9.3 
*END

*D_NET *248 0.0118311
*CONN
*I *1372:A I *D sky130_fd_sc_hd__clkdlybuf4s25_1
*I *1109:B I *D sky130_fd_sc_hd__or2_2
*I *1111:C1 I *D sky130_fd_sc_hd__a221o_2
*I *1173:A I *D sky130_fd_sc_hd__or2_2
*I *1254:C1 I *D sky130_fd_sc_hd__a311o_2
*I *1433:X O *D sky130_fd_sc_hd__clkdlybuf4s25_1
*CAP
1 *1372:A 0
2 *1109:B 0
3 *1111:C1 0.000834748
4 *1173:A 0.000353513
5 *1254:C1 0
6 *1433:X 0.000795053
7 *248:33 0.00157801
8 *248:29 0.000573145
9 *248:18 0.00150839
10 *248:10 0.00212004
11 *1111:C1 *1418:A 8.23597e-06
12 *1111:C1 *369:27 0.000631061
13 *1173:A *1107:A 4.58764e-05
14 *248:10 *1259:A 3.56976e-05
15 *248:10 *1453:A 0
16 *248:10 *387:8 0.000117189
17 *248:10 *387:10 0.00020455
18 *248:18 *265:25 0.000310286
19 *248:18 *273:8 0
20 *248:18 *384:27 0.00011849
21 *248:18 *384:29 0.000554847
22 *248:18 *384:33 0.000142856
23 *248:18 *387:10 7.83659e-05
24 *248:29 *1109:A 5.80706e-06
25 *248:33 *1074:A 0.000377898
26 *248:33 *1109:A 0.000284404
27 *248:33 *273:105 0
28 tx *248:10 5.52302e-05
29 *1107:B *1173:A 0
30 *1110:A1 *248:33 0.000346639
31 *1111:B1 *1111:C1 0.000101601
32 *1254:B1 *248:18 1.24381e-05
33 *1258:A *248:18 0.00019531
34 *1259:C *248:10 0
35 *1305:D *1173:A 5.33005e-05
36 *1345:CLK *248:29 8.86354e-05
37 *1371:A *248:29 0.000120645
38 *124:30 *1111:C1 9.59532e-06
39 *225:6 *248:18 4.57092e-05
40 *225:8 *248:18 9.16571e-05
41 *225:14 *248:18 0
42 *241:18 *1173:A 3.18676e-05
*RES
1 *1433:X *248:10 26.175 
2 *248:10 *248:18 23.5357 
3 *248:18 *1254:C1 9.3 
4 *248:18 *248:29 9.01786 
5 *248:29 *248:33 14.9189 
6 *248:33 *1173:A 20.7328 
7 *248:33 *1111:C1 19.4796 
8 *248:29 *1109:B 13.8 
9 *248:10 *1372:A 13.8 
*END

*D_NET *249 0.00258931
*CONN
*I *1281:A1 I *D sky130_fd_sc_hd__o311a_2
*I *1434:X O *D sky130_fd_sc_hd__clkdlybuf4s25_1
*CAP
1 *1281:A1 0.000586295
2 *1434:X 0.000586295
3 *1281:A1 *1271:A3 0
4 *1281:A1 *1272:A 0.000192365
5 *1281:A1 *1273:A1 9.99853e-05
6 *1281:A1 *1412:A 0
7 *1273:B1 *1281:A1 0
8 *1281:A2 *1281:A1 4.22908e-05
9 *1339:D *1281:A1 0.000147828
10 *1434:A *1281:A1 0
11 *1440:A *1281:A1 0.000882188
12 *102:100 *1281:A1 5.20669e-05
*RES
1 *1434:X *1281:A1 42.6 
*END

*D_NET *250 0.00272114
*CONN
*I *1077:A I *D sky130_fd_sc_hd__inv_2
*I *1260:A1 I *D sky130_fd_sc_hd__o211a_2
*I *1435:X O *D sky130_fd_sc_hd__clkdlybuf4s25_1
*CAP
1 *1077:A 0
2 *1260:A1 0.000198853
3 *1435:X 0.000291647
4 *250:10 0.0004905
5 *1260:A1 *265:25 7.70134e-06
6 *1260:A1 *265:41 0.000225307
7 *250:10 *1275:A1 0.000223589
8 *250:10 *265:41 0.000303651
9 *250:10 *265:54 0.000353988
10 *1260:C1 *1260:A1 1.28809e-05
11 *1262:B1_N *1260:A1 5.84267e-05
12 *1334:D *1260:A1 0.000206298
13 *1334:D *250:10 5.80706e-06
14 *1433:A *1260:A1 0
15 *1433:A *250:10 0
16 *102:10 *250:10 0.000342495
*RES
1 *1435:X *250:10 23.2643 
2 *250:10 *1260:A1 19.5723 
3 *250:10 *1077:A 13.8 
*END

*D_NET *251 0.0012492
*CONN
*I *1444:A I *D sky130_fd_sc_hd__clkdlybuf4s25_1
*I *1393:A I *D sky130_fd_sc_hd__dlygate4sd3_1
*I *1296:Q O *D sky130_fd_sc_hd__dfxtp_2
*CAP
1 *1444:A 0.000268739
2 *1393:A 0.000129433
3 *1296:Q 0.000120671
4 *251:8 0.000518844
5 rx_data[0] *1444:A 0
6 *158:27 *1393:A 9.59415e-05
7 *158:27 *1444:A 0.000115575
*RES
1 *1296:Q *251:8 15.1571 
2 *251:8 *1393:A 16.9607 
3 *251:8 *1444:A 19.2286 
*END

*D_NET *252 0.00420208
*CONN
*I *1445:A I *D sky130_fd_sc_hd__clkdlybuf4s25_1
*I *1158:A I *D sky130_fd_sc_hd__or2_2
*I *1297:Q O *D sky130_fd_sc_hd__dfxtp_2
*CAP
1 *1445:A 0.000428154
2 *1158:A 0.000793386
3 *1297:Q 9.1547e-05
4 *252:10 0.00131309
5 *1158:A *1159:A1 2.57194e-05
6 *1158:A *1266:A 2.51343e-06
7 *1158:A *1415:A 5.52302e-05
8 *1445:A *1266:A 0.000339917
9 *1445:A *1270:A 0.000459691
10 *1445:A *1271:A1 0
11 *1445:A *268:46 0.000253883
12 *252:10 *1267:C1 3.18676e-05
13 *252:10 *268:46 6.19181e-05
14 *1159:B1 *1158:A 0.000138881
15 *1267:B1 *1445:A 0
16 *1267:B1 *252:10 0
17 *1297:CLK *252:10 5.52302e-05
18 *1338:D *1445:A 5.5782e-05
19 *1379:A *1158:A 5.71472e-05
20 *1383:A *1445:A 0
21 *3:30 *1445:A 0
22 *158:67 *1158:A 3.81226e-05
*RES
1 *1297:Q *252:10 15.9786 
2 *252:10 *1158:A 26.2821 
3 *252:10 *1445:A 26.3714 
*END

*D_NET *253 0.00304787
*CONN
*I *1446:A I *D sky130_fd_sc_hd__clkdlybuf4s25_1
*I *1160:A I *D sky130_fd_sc_hd__or2_2
*I *1298:Q O *D sky130_fd_sc_hd__dfxtp_2
*CAP
1 *1446:A 0.000133027
2 *1160:A 7.99013e-05
3 *1298:Q 0.000424195
4 *253:10 0.000637124
5 *1446:A *1171:C1 0.000405733
6 *1446:A *1387:A 0.000141382
7 *253:10 *1298:D 0
8 *253:10 *1387:A 0.000293415
9 *1312:CLK *253:10 0.000397911
10 *1388:A *1160:A 2.28499e-05
11 *158:53 *1160:A 5.33005e-05
12 *158:63 *1160:A 5.33005e-05
13 *159:76 *1446:A 0.000405733
14 *247:64 *253:10 0
*RES
1 *1298:Q *253:10 21.3893 
2 *253:10 *1160:A 15.1571 
3 *253:10 *1446:A 19.5679 
*END

*D_NET *254 0.00223646
*CONN
*I *1162:A I *D sky130_fd_sc_hd__or2_2
*I *1447:A I *D sky130_fd_sc_hd__clkdlybuf4s25_1
*I *1299:Q O *D sky130_fd_sc_hd__dfxtp_2
*CAP
1 *1162:A 7.95365e-05
2 *1447:A 0.000393024
3 *1299:Q 0.000231667
4 *254:6 0.000704227
5 *1162:A *1163:C1 0.000277524
6 *1447:A *1299:D 0.000127163
7 *1162:B *1162:A 0.000202842
8 *1390:A *1447:A 3.93893e-05
9 *158:31 *1162:A 5.66157e-05
10 *158:43 *1447:A 0.000124475
11 *159:91 *1162:A 0
*RES
1 *1299:Q *254:6 11.8893 
2 *254:6 *1447:A 23.7643 
3 *254:6 *1162:A 21.7643 
*END

*D_NET *255 0.00175733
*CONN
*I *1394:A I *D sky130_fd_sc_hd__dlygate4sd3_1
*I *1448:A I *D sky130_fd_sc_hd__clkdlybuf4s25_1
*I *1300:Q O *D sky130_fd_sc_hd__dfxtp_2
*CAP
1 *1394:A 0
2 *1448:A 0.000323481
3 *1300:Q 0.000223683
4 *255:10 0.000547165
5 rx_data[4] *1448:A 0.000340723
6 rx_data[4] *255:10 0.000138548
7 *1390:A *1448:A 0.000183726
8 *158:27 *255:10 0
9 *158:31 *255:10 0
*RES
1 *1300:Q *255:10 22.675 
2 *255:10 *1448:A 16.425 
3 *255:10 *1394:A 9.3 
*END

*D_NET *256 0.00477272
*CONN
*I *1449:A I *D sky130_fd_sc_hd__clkdlybuf4s25_1
*I *1166:A I *D sky130_fd_sc_hd__or2_2
*I *1301:Q O *D sky130_fd_sc_hd__dfxtp_2
*CAP
1 *1449:A 0.00090006
2 *1166:A 0.000265652
3 *1301:Q 0.000405635
4 *256:10 0.00157135
5 *1166:A *1192:B1_N 2.89016e-05
6 *1449:A *1168:A 0
7 *1449:A *1171:C1 5.80217e-05
8 *1449:A *1192:B1_N 0.000345632
9 *1449:A *1193:A1 0.000132502
10 *1449:A *1450:A 0
11 *1449:A *267:31 5.83233e-05
12 *1449:A *268:23 4.038e-06
13 *1449:A *269:129 0
14 *256:10 *1193:A1 2.34204e-05
15 *256:10 *268:23 3.4984e-05
16 *256:10 *272:12 0.000207766
17 *256:10 *272:23 5.33433e-05
18 *1166:B *1166:A 0.000135028
19 *1166:B *1449:A 0.000126172
20 *1167:B1 *1166:A 4.27338e-05
21 *1168:B *1449:A 9.42978e-05
22 *1311:D *1449:A 0.000104974
23 *1312:D *1449:A 0.000175512
24 *159:76 *1449:A 0
25 *179:60 *1449:A 4.37485e-06
*RES
1 *1301:Q *256:10 19.4786 
2 *256:10 *1166:A 17.2286 
3 *256:10 *1449:A 34.6214 
*END

*D_NET *257 0.00103245
*CONN
*I *1450:A I *D sky130_fd_sc_hd__clkdlybuf4s25_1
*I *1168:A I *D sky130_fd_sc_hd__or2_2
*I *1302:Q O *D sky130_fd_sc_hd__dfxtp_2
*CAP
1 *1450:A 0.000155204
2 *1168:A 0.000271654
3 *1302:Q 0
4 *257:6 0.000426859
5 *1168:A *1302:D 0
6 *1168:A *1382:A 0
7 *1450:A *1302:D 0
8 rx_data[5] *1450:A 7.77751e-05
9 *1168:B *1168:A 0.00010096
10 *1449:A *1168:A 0
11 *1449:A *1450:A 0
*RES
1 *1302:Q *257:6 13.8 
2 *257:6 *1168:A 19.0321 
3 *257:6 *1450:A 16.8 
*END

*D_NET *258 0.00246242
*CONN
*I *1451:A I *D sky130_fd_sc_hd__clkdlybuf4s25_1
*I *1170:A I *D sky130_fd_sc_hd__or2_2
*I *1303:Q O *D sky130_fd_sc_hd__dfxtp_2
*CAP
1 *1451:A 0.000250238
2 *1170:A 0.000150282
3 *1303:Q 0.000259778
4 *258:8 0.000660298
5 *1170:A *1206:B1_N 0
6 *1170:A *1303:D 1.87955e-05
7 *1170:A *1385:A 0.000104227
8 *1451:A *1303:D 5.45809e-05
9 *1451:A *1385:A 6.30292e-05
10 *1196:A1 *1170:A 0
11 *1299:CLK *1170:A 0
12 *1313:D *1170:A 0
13 *1386:A *1451:A 0.000449546
14 *159:89 *1451:A 4.88637e-05
15 *247:64 *258:8 0.000402784
*RES
1 *1303:Q *258:8 17.6214 
2 *258:8 *1170:A 17.2643 
3 *258:8 *1451:A 20.4964 
*END

*D_NET *259 0.00075413
*CONN
*I *1172:B I *D sky130_fd_sc_hd__or2_2
*I *1436:X O *D sky130_fd_sc_hd__clkdlybuf4s25_1
*CAP
1 *1172:B 0.000330533
2 *1436:X 0.000330533
3 *1172:B *273:14 0
4 *1172:B *273:35 3.07555e-05
5 *1304:CLK *1172:B 5.03787e-05
6 *1326:CLK *1172:B 1.19309e-05
*RES
1 *1436:X *1172:B 33.0286 
*END

*D_NET *260 0.000893901
*CONN
*I *1452:A I *D sky130_fd_sc_hd__clkdlybuf4s25_1
*I *1295:Q O *D sky130_fd_sc_hd__dfxtp_2
*CAP
1 *1452:A 0.000338699
2 *1295:Q 0.000338699
3 *1452:A *1422:A 0
4 rx_valid *1452:A 0.000216504
*RES
1 *1295:Q *1452:A 34.2607 
*END

*D_NET *261 0.00145174
*CONN
*I *1453:A I *D sky130_fd_sc_hd__clkdlybuf4s25_1
*I *1083:X O *D sky130_fd_sc_hd__o21a_2
*CAP
1 *1453:A 0.000708761
2 *1083:X 0.000708761
3 *1453:A *1259:A 0
4 *1453:A *1262:A1 5.30637e-06
5 *1453:A *265:41 0
6 *1259:B *1453:A 2.89114e-05
7 *248:10 *1453:A 0
*RES
1 *1083:X *1453:A 36.725 
*END

*D_NET *262 0.0100659
*CONN
*I *1271:A3 I *D sky130_fd_sc_hd__o311a_2
*I *1273:A3 I *D sky130_fd_sc_hd__o311a_2
*I *1365:A I *D sky130_fd_sc_hd__clkdlybuf4s25_1
*I *1084:X O *D sky130_fd_sc_hd__or2_2
*CAP
1 *1271:A3 0.000619986
2 *1273:A3 1.33038e-05
3 *1365:A 0
4 *1084:X 0.000243272
5 *262:33 0.00408275
6 *262:10 0.00369274
7 *1271:A3 *1269:A3 9.41642e-05
8 *262:10 *387:18 2.14658e-05
9 *1213:B *262:33 1.22624e-05
10 *1265:A2 *262:10 0.00014285
11 *1271:A2 *1271:A3 0.000125333
12 *1273:B1 *1271:A3 4.12767e-05
13 *1273:B1 *1273:A3 2.06112e-05
14 *1281:A1 *1271:A3 0
15 *1339:D *1271:A3 2.8266e-06
16 *3:30 *262:33 3.28516e-05
17 *102:107 *1271:A3 0.000434987
18 *103:10 *262:10 0.000272339
19 *103:10 *262:33 2.11419e-05
20 *195:39 *262:33 3.7538e-06
21 *196:51 *262:10 0.000175526
22 *196:51 *262:33 1.24469e-05
*RES
1 *1084:X *262:10 19.4607 
2 *262:10 *1365:A 13.8 
3 *262:10 *262:33 19.6821 
4 *262:33 *1273:A3 14.0768 
5 *262:33 *1271:A3 22.3268 
*END

*D_NET *263 0.0135347
*CONN
*I *1238:B I *D sky130_fd_sc_hd__and3b_2
*I *1246:A I *D sky130_fd_sc_hd__and3_2
*I *1217:B1_N I *D sky130_fd_sc_hd__a21boi_2
*I *1232:B I *D sky130_fd_sc_hd__and3b_2
*I *1220:A I *D sky130_fd_sc_hd__and3_2
*I *1215:B I *D sky130_fd_sc_hd__and2b_2
*I *1223:C I *D sky130_fd_sc_hd__and3b_2
*I *1229:C I *D sky130_fd_sc_hd__and3b_2
*I *1226:A I *D sky130_fd_sc_hd__and3_2
*I *1235:A I *D sky130_fd_sc_hd__and3_2
*I *1363:X O *D sky130_fd_sc_hd__clkdlybuf4s25_1
*CAP
1 *1238:B 0.000319085
2 *1246:A 0.000577305
3 *1217:B1_N 0.000641789
4 *1232:B 0
5 *1220:A 5.96347e-05
6 *1215:B 0.000145565
7 *1223:C 0
8 *1229:C 0
9 *1226:A 0.000344053
10 *1235:A 2.03441e-05
11 *1363:X 0.00131628
12 *263:113 0.00144884
13 *263:68 0.000501743
14 *263:61 0.000743342
15 *263:39 0.000454175
16 *263:33 0.000926733
17 *263:29 0.000622028
18 *263:23 0.00135026
19 *263:12 0.00124043
20 *1215:B *1215:A_N 0
21 *1217:B1_N *1423:A 6.25636e-05
22 *1217:B1_N *380:8 0.000358841
23 *1226:A *1225:A 0.000105163
24 *1226:A *1228:A1 9.53373e-05
25 *263:12 *1236:B1 0.000125542
26 *263:23 *1234:A 3.30237e-05
27 *263:33 *1421:A 0
28 *263:33 *378:10 0
29 *263:39 *1228:A1 3.12916e-05
30 *263:39 *378:10 0
31 *263:61 *1228:A1 0.0001572
32 *263:61 *1228:B1 0.000269379
33 *263:113 *1236:B1 2.6541e-05
34 *263:113 *382:10 0
35 *1220:C *1215:B 0
36 *1225:B *263:39 0
37 *1226:C *1226:A 3.76337e-05
38 *1229:A_N *263:33 0
39 *1229:A_N *263:61 0.00014285
40 *1229:B *263:61 7.03295e-05
41 *1230:B *263:33 0
42 *1231:D *263:29 0
43 *1231:D *263:33 0
44 *1232:C *263:29 2.98321e-05
45 *1235:C *1235:A 5.7661e-06
46 *1235:C *263:12 5.62995e-05
47 *1235:C *263:23 3.18676e-05
48 *1238:A_N *1238:B 1.07719e-05
49 *1239:D *263:113 5.33433e-05
50 *1241:B1_N *1238:B 0
51 *1241:B1_N *263:113 0
52 *1243:A2 *1246:A 0.000186765
53 *1243:B1_N *1246:A 8.07313e-05
54 *1321:D *1215:B 0
55 *1323:D *263:33 6.04069e-05
56 *1323:D *263:61 0.000142856
57 *1324:D *1217:B1_N 0.000161579
58 *1324:D *263:29 6.42242e-05
59 *1325:D *263:12 4.88284e-05
60 *1363:A *263:113 5.35423e-05
61 *197:8 *1238:B 3.69865e-05
62 *197:8 *263:113 5.03787e-05
63 *201:14 *263:61 0.000140556
64 *201:28 *263:39 0
65 *208:6 *263:23 3.50001e-05
66 *208:12 *263:23 8.81471e-06
67 *208:54 *263:23 4.87953e-05
68 *240:47 *1217:B1_N 0
69 *240:47 *263:29 0
70 *240:47 *263:33 0
71 *240:51 *263:33 0
*RES
1 *1363:X *263:12 31.1393 
2 *263:12 *1235:A 9.72857 
3 *263:12 *263:23 10.375 
4 *263:23 *263:29 8 
5 *263:29 *263:33 11 
6 *263:33 *263:39 6.11161 
7 *263:39 *1226:A 14.3313 
8 *263:39 *1229:C 9.3 
9 *263:33 *263:61 15.3795 
10 *263:61 *1223:C 9.3 
11 *263:61 *263:68 4.60268 
12 *263:68 *1215:B 20.8536 
13 *263:68 *1220:A 10.2464 
14 *263:29 *1232:B 9.3 
15 *263:23 *1217:B1_N 26.3179 
16 *1363:X *263:113 21.8 
17 *263:113 *1246:A 23.3714 
18 *263:113 *1238:B 18.1393 
*END

*D_NET *264 0.0142758
*CONN
*I *1152:B1 I *D sky130_fd_sc_hd__o311a_2
*I *1125:A I *D sky130_fd_sc_hd__inv_2
*I *1130:B1 I *D sky130_fd_sc_hd__o21ai_2
*I *1140:B1 I *D sky130_fd_sc_hd__o21ai_2
*I *1142:B1 I *D sky130_fd_sc_hd__o21ai_2
*I *1139:B I *D sky130_fd_sc_hd__and3b_2
*I *1136:B1 I *D sky130_fd_sc_hd__o21ai_2
*I *1134:B1 I *D sky130_fd_sc_hd__o21ai_2
*I *1133:B I *D sky130_fd_sc_hd__and3b_2
*I *1129:B I *D sky130_fd_sc_hd__and3_2
*I *1364:X O *D sky130_fd_sc_hd__clkdlybuf4s25_1
*CAP
1 *1152:B1 0
2 *1125:A 0
3 *1130:B1 0
4 *1140:B1 0.000584688
5 *1142:B1 5.86651e-05
6 *1139:B 0.000439834
7 *1136:B1 0.000395428
8 *1134:B1 0
9 *1133:B 0.000345859
10 *1129:B 4.52896e-05
11 *1364:X 0.00022461
12 *264:98 0.000498499
13 *264:96 0.00121689
14 *264:69 0.00141443
15 *264:58 0.000861465
16 *264:41 0.000943627
17 *264:39 0.000490429
18 *264:33 0.000564895
19 *264:22 0.000535685
20 *264:12 0.000517435
21 *1129:B *1122:A 1.98839e-05
22 *1136:B1 *1119:B 0
23 *1136:B1 *350:37 0
24 *1139:B *1119:A 0
25 *1139:B *349:12 4.25716e-05
26 *1140:B1 *1141:A1 1.40306e-05
27 *1142:B1 *1142:A1 1.00375e-05
28 *264:12 *1152:A2 0.000320031
29 *264:12 *370:26 0.000180777
30 *264:22 *1122:A 0.000186662
31 *264:22 *1152:A1 0.000178459
32 *264:22 *1152:A2 5.71472e-05
33 *264:33 *342:19 0.000136303
34 *264:39 *1121:C 0
35 *264:39 *1126:A1 7.95286e-05
36 *264:39 *342:19 3.29297e-05
37 *264:39 *342:21 0.000173614
38 *264:58 *286:6 9.90431e-05
39 *264:58 *352:25 2.95726e-05
40 *264:69 *1089:C 0
41 *264:69 *1384:A 9.90431e-05
42 *264:69 *286:6 8.76257e-05
43 *264:69 *350:37 0
44 *264:69 *351:8 0
45 *264:96 *349:26 5.64433e-05
46 *1119:C *264:96 5.33005e-05
47 *1119:D *1139:B 0
48 *1120:C *264:58 1.98839e-05
49 *1122:B *264:33 0
50 *1126:B1 *264:39 0.000150043
51 *1129:C *264:33 0.000103253
52 *1130:A2 *1133:B 0
53 *1130:A2 *264:39 0
54 *1130:A2 *264:41 0
55 *1131:B *264:39 0
56 *1133:A_N *1133:B 0
57 *1134:A2 *264:58 0.000259934
58 *1137:B *1136:B1 2.14757e-05
59 *1138:A2 *264:96 5.33433e-05
60 *1139:C *1139:B 0
61 *1141:B1 *1140:B1 8.63615e-05
62 *1142:A2 *264:96 3.14193e-05
63 *1143:A *1140:B1 1.06172e-05
64 *1143:B *1142:B1 5.80706e-06
65 *1152:C1 *264:12 5.80706e-06
66 *1283:D *264:22 9.90367e-05
67 *1283:D *264:33 5.79522e-05
68 *1284:D *264:39 3.17866e-05
69 *1285:CLK *1133:B 0
70 *1285:D *1133:B 8.15939e-05
71 *1287:D *1136:B1 8.84074e-05
72 *1289:D *1140:B1 5.24274e-05
73 *1404:A *264:12 0.000270943
74 *1404:A *264:22 2.66563e-05
75 *117:16 *264:12 1.50087e-05
76 *124:18 *264:22 5.71472e-05
77 *124:30 *264:22 0.000474016
78 *133:14 *1142:B1 0
79 *133:14 *264:96 7.6644e-05
80 *133:16 *264:96 8.46829e-05
81 *134:8 *1140:B1 0.000405733
82 *134:8 *264:96 9.90367e-05
83 *134:12 *1140:B1 0.000138109
84 *135:8 *1139:B 0
85 *135:8 *264:96 5.01213e-05
86 *136:10 *1136:B1 0
87 *136:10 *264:96 4.8035e-05
88 *137:10 *1136:B1 5.71472e-05
89 *137:20 *1136:B1 0.000144804
90 *137:48 *264:58 9.90431e-05
91 *138:8 *264:58 7.48091e-05
92 *242:61 *1133:B 0
93 *242:61 *264:39 0
94 *242:61 *264:41 0
*RES
1 *1364:X *264:12 24.1393 
2 *264:12 *264:22 9.33929 
3 *264:22 *1129:B 9.83571 
4 *264:22 *264:33 8.57143 
5 *264:33 *264:39 8.67857 
6 *264:39 *264:41 2.25 
7 *264:41 *1133:B 20.3 
8 *264:41 *264:58 14.2143 
9 *264:58 *1134:B1 9.3 
10 *264:58 *264:69 11.3929 
11 *264:69 *1136:B1 21.3 
12 *264:69 *264:96 24.125 
13 *264:96 *264:98 4.5 
14 *264:98 *1139:B 20.6393 
15 *264:98 *1142:B1 14.8357 
16 *264:96 *1140:B1 29.2464 
17 *264:39 *1130:B1 13.8 
18 *264:33 *1125:A 13.8 
19 *264:12 *1152:B1 9.3 
*END

*D_NET *265 0.015807
*CONN
*I *1260:A2 I *D sky130_fd_sc_hd__o211a_2
*I *1281:A3 I *D sky130_fd_sc_hd__o311a_2
*I *1269:A3 I *D sky130_fd_sc_hd__o311a_2
*I *1267:A3 I *D sky130_fd_sc_hd__o311a_2
*I *1277:A3 I *D sky130_fd_sc_hd__o311a_2
*I *1249:B I *D sky130_fd_sc_hd__nor2_2
*I *1454:A I *D sky130_fd_sc_hd__clkdlybuf4s25_1
*I *1279:A3 I *D sky130_fd_sc_hd__o311a_2
*I *1275:A3 I *D sky130_fd_sc_hd__o311a_2
*I *1213:A I *D sky130_fd_sc_hd__nand2_2
*I *1365:X O *D sky130_fd_sc_hd__clkdlybuf4s25_1
*CAP
1 *1260:A2 0
2 *1281:A3 0.000258099
3 *1269:A3 0.000269044
4 *1267:A3 0.000204443
5 *1277:A3 2.82796e-05
6 *1249:B 0
7 *1454:A 4.64378e-05
8 *1279:A3 2.26941e-05
9 *1275:A3 3.34103e-05
10 *1213:A 0.000137532
11 *1365:X 0.000162087
12 *265:108 0.00144024
13 *265:93 0.0011059
14 *265:82 0.000184021
15 *265:69 0.000203559
16 *265:65 0.00051005
17 *265:54 0.000570834
18 *265:41 0.00097858
19 *265:25 0.00112321
20 *265:8 0.000857817
21 *1267:A3 *1079:A0 9.31893e-05
22 *1267:A3 *1267:A1 0.000269088
23 *1267:A3 *1268:A 4.02462e-05
24 *1269:A3 *1267:A1 0.000277277
25 *1269:A3 *1268:A 0.000244395
26 *1281:A3 *1273:A1 0
27 *1281:A3 *395:10 5.01213e-05
28 *1454:A *1277:A1 9.3322e-05
29 *265:54 *1275:A1 7.79781e-06
30 *265:69 *272:57 7.80714e-06
31 *265:93 *272:57 1.94879e-05
32 *265:108 *1278:A 5.52302e-05
33 *265:108 *268:79 0.000800179
34 tx_busy *265:54 0
35 *1083:B1 *265:25 0.000198691
36 *1213:B *1213:A 4.1331e-06
37 *1249:A *1277:A3 2.19778e-05
38 *1249:A *265:93 3.46992e-05
39 *1260:A1 *265:25 7.70134e-06
40 *1260:A1 *265:41 0.000225307
41 *1260:B1 *265:41 1.02504e-05
42 *1260:C1 *265:25 0.000130744
43 *1262:B1_N *265:41 4.58194e-05
44 *1267:A2 *1267:A3 0.000266486
45 *1267:A2 *265:108 5.12966e-05
46 *1269:B1 *1269:A3 5.58941e-05
47 *1271:A2 *1269:A3 9.41642e-05
48 *1271:A3 *1269:A3 9.41642e-05
49 *1277:B1 *1277:A3 1.02504e-05
50 *1279:A2 *1279:A3 9.90367e-05
51 *1279:A2 *265:54 0.0001746
52 *1279:A2 *265:65 8.46829e-05
53 *1279:A2 *265:69 0
54 *1279:B1 *1277:A3 0
55 *1279:B1 *1279:A3 5.52238e-05
56 *1279:B1 *265:65 0.000447622
57 *1279:B1 *265:93 0
58 *1281:B1 *1281:A3 0.000596052
59 *1281:B1 *265:69 0.000128154
60 *1281:B1 *265:82 9.90367e-05
61 *1281:B1 *265:93 1.98839e-05
62 *1297:CLK *1267:A3 7.43578e-06
63 *1334:D *265:41 0.000176234
64 *1335:CLK *265:41 0
65 *1341:CLK *1275:A3 5.33005e-05
66 *1435:A *265:54 0
67 *1442:A *265:54 0
68 *1453:A *265:41 0
69 *102:25 *265:54 0.00016494
70 *102:92 *1279:A3 7.43578e-06
71 *102:100 *1281:A3 0.000108881
72 *103:10 *1213:A 0.000246801
73 *103:10 *265:25 9.30093e-05
74 *105:6 *265:8 8.20629e-05
75 *105:10 *1213:A 0
76 *105:10 *265:25 0
77 *105:21 *265:25 0
78 *195:39 *1213:A 0
79 *196:51 *1213:A 9.10431e-06
80 *219:10 *1277:A3 0
81 *219:67 *1267:A3 0
82 *225:8 *265:25 0.000701659
83 *245:14 *265:108 0.000137983
84 *248:18 *265:25 0.000310286
85 *250:10 *265:41 0.000303651
86 *250:10 *265:54 0.000353988
*RES
1 *1365:X *265:8 15.9786 
2 *265:8 *1213:A 17.2643 
3 *265:8 *265:25 18.1607 
4 *265:25 *265:41 25.2857 
5 *265:41 *1275:A3 14.3357 
6 *265:41 *265:54 14.3393 
7 *265:54 *1279:A3 10.2464 
8 *265:54 *265:65 8.73214 
9 *265:65 *265:69 6.44643 
10 *265:69 *1454:A 10.6214 
11 *265:69 *265:82 1.78571 
12 *265:82 *1249:B 9.3 
13 *265:82 *265:93 6.67857 
14 *265:93 *1277:A3 14.5321 
15 *265:93 *265:108 21.8571 
16 *265:108 *1267:A3 19.9607 
17 *265:108 *1269:A3 21.8536 
18 *265:65 *1281:A3 21.5143 
19 *265:25 *1260:A2 9.3 
*END

*D_NET *266 0.0139926
*CONN
*I *1105:A_N I *D sky130_fd_sc_hd__and3b_2
*I *1193:A1 I *D sky130_fd_sc_hd__o311a_2
*I *1190:C I *D sky130_fd_sc_hd__or4_2
*I *1154:A I *D sky130_fd_sc_hd__and3_2
*I *1155:A I *D sky130_fd_sc_hd__nand3_2
*I *1203:A1 I *D sky130_fd_sc_hd__o311a_2
*I *1153:A I *D sky130_fd_sc_hd__and4_2
*I *1112:A1 I *D sky130_fd_sc_hd__a31o_2
*I *1104:A_N I *D sky130_fd_sc_hd__nand2b_2
*I *1109:A I *D sky130_fd_sc_hd__or2_2
*I *1366:X O *D sky130_fd_sc_hd__clkdlybuf4s25_1
*CAP
1 *1105:A_N 2.51027e-05
2 *1193:A1 0.000514776
3 *1190:C 0.000499597
4 *1154:A 0
5 *1155:A 6.70937e-05
6 *1203:A1 0
7 *1153:A 0.000372874
8 *1112:A1 5.88939e-05
9 *1104:A_N 0
10 *1109:A 0.000182139
11 *1366:X 5.53007e-05
12 *266:117 0.000715044
13 *266:102 0.000647278
14 *266:90 0.000904192
15 *266:81 0.000578979
16 *266:75 0.000634704
17 *266:38 0.000844707
18 *266:12 0.00110142
19 *266:4 0.00133222
20 *1109:A *1074:A 9.25014e-06
21 *1112:A1 *1152:A2 6.7257e-05
22 *1112:A1 *300:42 1.02504e-05
23 *1153:A *1151:A1 0.000144475
24 *1153:A *1187:A 5.33005e-05
25 *1153:A *370:22 9.91086e-05
26 *1155:A *1099:A2 0.000229456
27 *1190:C *271:76 0
28 *1193:A1 *1167:C1 3.57218e-05
29 *1193:A1 *268:23 0
30 *266:12 *1104:B 0.000266601
31 *266:12 *1366:A 4.88546e-05
32 *266:12 *368:6 0.000404707
33 *266:38 *1108:A 3.92757e-05
34 *266:38 *1151:A1 1.52077e-05
35 *266:38 *368:6 5.71472e-05
36 *266:38 *368:17 0.000126572
37 *266:75 *1105:C 2.56601e-05
38 *266:81 *1105:C 1.64343e-05
39 *266:81 *1203:C1 0
40 *266:81 *1367:A 0
41 *266:102 *1099:A1 1.08359e-05
42 *266:102 *1099:A2 2.24195e-05
43 *266:102 *1203:C1 1.69115e-05
44 *266:117 *1154:B 0.000142876
45 *266:117 *271:76 0
46 *1099:A3 *266:102 4.74013e-05
47 *1108:B *266:38 4.46186e-06
48 *1112:A3 *266:38 9.00795e-06
49 *1154:C *1190:C 4.44291e-05
50 *1154:C *266:117 6.5323e-05
51 *1155:C *1155:A 5.52302e-05
52 *1155:C *266:117 0.000301867
53 *1176:B1 *1153:A 5.33005e-05
54 *1190:D *1190:C 4.24918e-05
55 *1203:A2 *1193:A1 0
56 *1203:A2 *266:102 0.000300111
57 *1203:A3 *266:81 1.69115e-05
58 *1203:B1 *1193:A1 5.33882e-05
59 *1203:B1 *266:81 5.80706e-06
60 *1203:B1 *266:90 3.17067e-05
61 *1311:D *1193:A1 5.33978e-05
62 *1344:CLK *266:38 4.01768e-05
63 *1344:D *266:38 1.32552e-05
64 *1345:CLK *1109:A 0.000535231
65 *1345:CLK *266:12 4.72818e-05
66 *1347:CLK *266:81 0.000175512
67 *1347:D *266:102 5.80706e-06
68 *1449:A *1193:A1 0.000132502
69 *117:16 *1112:A1 0.000128154
70 *127:23 *1105:A_N 2.89114e-05
71 *127:23 *266:81 0.000123673
72 *129:20 *266:75 3.5707e-05
73 *129:20 *266:81 0
74 *158:16 *1190:C 9.9307e-05
75 *159:10 *1193:A1 0
76 *159:10 *266:81 0
77 *159:10 *266:90 0
78 *159:10 *266:102 0.000223558
79 *159:10 *266:117 0.000256992
80 *179:45 *1193:A1 0.000212851
81 *239:122 *1153:A 0
82 *246:56 *1193:A1 0
83 *246:56 *266:102 0.000158577
84 *246:76 *1193:A1 0
85 *248:29 *1109:A 5.80706e-06
86 *248:33 *1109:A 0.000284404
87 *256:10 *1193:A1 2.34204e-05
*RES
1 *1366:X *266:4 9.3 
2 *266:4 *266:12 13.7321 
3 *266:12 *1109:A 25.1036 
4 *266:12 *1104:A_N 9.3 
5 *266:4 *266:38 14.8036 
6 *266:38 *1112:A1 19.9429 
7 *266:38 *1153:A 23.9964 
8 *1366:X *266:75 19.6393 
9 *266:75 *266:81 14.6964 
10 *266:81 *1203:A1 13.8 
11 *266:81 *266:90 0.732143 
12 *266:90 *266:102 20.4286 
13 *266:102 *1155:A 12.2107 
14 *266:102 *266:117 6.625 
15 *266:117 *1154:A 9.3 
16 *266:117 *1190:C 16.3357 
17 *266:90 *1193:A1 26.2286 
18 *266:75 *1105:A_N 9.83571 
*END

*D_NET *267 0.00598537
*CONN
*I *1195:A1 I *D sky130_fd_sc_hd__o311a_2
*I *1197:A1 I *D sky130_fd_sc_hd__o311a_2
*I *1200:C I *D sky130_fd_sc_hd__or4_2
*I *1207:A1 I *D sky130_fd_sc_hd__o311a_2
*I *1205:A1 I *D sky130_fd_sc_hd__o311a_2
*I *1367:X O *D sky130_fd_sc_hd__clkdlybuf4s25_1
*CAP
1 *1195:A1 0
2 *1197:A1 8.76856e-05
3 *1200:C 0.000335998
4 *1207:A1 0
5 *1205:A1 0.000180735
6 *1367:X 0
7 *267:42 0.000721398
8 *267:31 0.00109869
9 *267:17 0.000982572
10 *267:4 0.000362329
11 *1197:A1 *269:57 5.33005e-05
12 *1200:C *1199:B 0
13 *1200:C *269:57 0
14 *1200:C *353:73 0
15 *1205:A1 *1205:C1 9.90431e-05
16 *267:17 *1205:C1 0.000165744
17 *267:17 *1367:A 0.000178847
18 *267:31 *1205:C1 0.000184745
19 *267:31 *1206:B1_N 0
20 *267:31 *269:108 0
21 *1194:A2 *267:31 5.04589e-05
22 *1195:A2 *267:17 3.57366e-05
23 *1195:B1 *267:31 0.000226513
24 *1196:A1 *1200:C 0
25 *1205:A2 *1205:A1 1.32552e-05
26 *1205:A3 *1205:A1 5.04589e-05
27 *1206:A1 *267:42 1.04232e-05
28 *1206:A2 *1200:C 4.25523e-05
29 *1206:A2 *267:31 0
30 *1207:A2 *267:42 8.18783e-05
31 *1207:B1 *267:42 0.000155067
32 *1313:D *1197:A1 5.62995e-05
33 *1449:A *267:31 5.83233e-05
34 *119:14 *1197:A1 0.000119203
35 *119:14 *267:42 1.55885e-05
36 *172:21 *267:31 5.30237e-05
37 *172:27 *267:17 0.000268409
38 *172:27 *267:31 1.32552e-05
39 *179:60 *267:31 5.80706e-06
40 *185:47 *1200:C 9.56968e-05
41 *185:58 *1200:C 0.000182329
42 *185:58 *267:31 0
43 *247:19 *267:31 0
*RES
1 *1367:X *267:4 9.3 
2 *267:4 *1205:A1 12.7286 
3 *267:4 *267:17 5.07143 
4 *267:17 *267:31 32.1964 
5 *267:31 *1207:A1 9.3 
6 *267:31 *267:42 5.91071 
7 *267:42 *1200:C 25.7107 
8 *267:42 *1197:A1 11.8893 
9 *267:17 *1195:A1 9.3 
*END

*D_NET *268 0.014239
*CONN
*I *1159:C1 I *D sky130_fd_sc_hd__o211a_2
*I *1169:C1 I *D sky130_fd_sc_hd__o211a_2
*I *1271:C1 I *D sky130_fd_sc_hd__o311a_2
*I *1269:C1 I *D sky130_fd_sc_hd__o311a_2
*I *1277:C1 I *D sky130_fd_sc_hd__o311a_2
*I *1275:C1 I *D sky130_fd_sc_hd__o311a_2
*I *1259:A I *D sky130_fd_sc_hd__and3_2
*I *1273:C1 I *D sky130_fd_sc_hd__o311a_2
*I *1267:C1 I *D sky130_fd_sc_hd__o311a_2
*I *1167:C1 I *D sky130_fd_sc_hd__o211a_2
*I *1368:X O *D sky130_fd_sc_hd__clkdlybuf4s25_1
*CAP
1 *1159:C1 0.000122226
2 *1169:C1 0
3 *1271:C1 0
4 *1269:C1 8.39639e-06
5 *1277:C1 0
6 *1275:C1 0.000413616
7 *1259:A 0.000282447
8 *1273:C1 8.45659e-05
9 *1267:C1 3.18498e-05
10 *1167:C1 6.75766e-05
11 *1368:X 0.000241874
12 *268:112 2.75173e-05
13 *268:83 0.000978274
14 *268:79 0.000672114
15 *268:58 0.00079991
16 *268:50 0.000653662
17 *268:46 0.000728108
18 *268:31 0.00089912
19 *268:23 0.000838665
20 *268:8 0.000577627
21 *1267:C1 *1079:A0 0.000188586
22 *1273:C1 *1269:A1 0.00016525
23 *1275:C1 *1274:A 0.00014285
24 *268:8 *272:12 0.000107974
25 *268:31 *1079:A0 0.000129515
26 *268:31 *1192:B1_N 0.000175892
27 *268:31 *1297:D 0.000149059
28 *268:31 *1378:A 9.41642e-05
29 *268:31 *279:6 5.52238e-05
30 *268:46 *1204:B1_N 0
31 *268:46 *1270:A 0.00012401
32 *268:46 *1415:A 6.95299e-05
33 *268:50 *1271:A1 5.71472e-05
34 *268:58 *1269:A1 0.000117004
35 *268:79 *1081:A1 0.000146474
36 *268:79 *1081:S1 0
37 *268:79 *1278:A 5.71472e-05
38 *268:79 *390:12 0.000351992
39 *268:83 *1276:A 0
40 *1082:A1 *268:79 0.000291723
41 *1159:B1 *1159:C1 5.33005e-05
42 *1166:B *1159:C1 0.000243627
43 *1166:B *268:23 0.00039299
44 *1167:B1 *1167:C1 8.15843e-05
45 *1167:B1 *268:23 0.000152039
46 *1169:A2 *268:46 8.15939e-05
47 *1169:B1 *268:50 1.97695e-05
48 *1193:A1 *1167:C1 3.57218e-05
49 *1193:A1 *268:23 0
50 *1259:C *1259:A 1.02504e-05
51 *1267:A2 *268:79 0.000234874
52 *1267:B1 *268:46 0
53 *1271:A2 *1269:C1 5.52238e-05
54 *1271:A2 *268:50 8.40933e-05
55 *1271:A2 *268:58 5.56825e-05
56 *1274:B *1275:C1 0.000144422
57 *1275:B1 *1275:C1 0.00010096
58 *1277:B1 *268:83 7.83366e-05
59 *1297:CLK *1267:C1 4.8843e-05
60 *1297:CLK *268:31 0.000150495
61 *1316:D *268:46 0
62 *1337:D *268:79 0.000343004
63 *1341:CLK *1275:C1 0.000156902
64 *1341:D *1275:C1 8.42801e-05
65 *1341:D *268:83 0
66 *1445:A *268:46 0.000253883
67 *1449:A *268:23 4.038e-06
68 *1453:A *1259:A 0
69 *18:15 *268:79 1.17968e-05
70 *102:25 *1275:C1 0
71 *102:107 *268:58 5.74499e-06
72 *158:67 *1159:C1 6.05161e-06
73 *159:27 *1159:C1 0.000155088
74 *159:27 *268:23 0.000258859
75 *159:38 *1159:C1 5.80706e-06
76 *219:12 *268:83 0
77 *219:16 *1259:A 0
78 *219:16 *268:83 0
79 *219:67 *268:79 0.000114048
80 *248:10 *1259:A 3.56976e-05
81 *252:10 *1267:C1 3.18676e-05
82 *252:10 *268:46 6.19181e-05
83 *256:10 *268:23 3.4984e-05
84 *265:108 *268:79 0.000800179
*RES
1 *1368:X *268:8 16.8 
2 *268:8 *1167:C1 15.7464 
3 *268:8 *268:23 8.375 
4 *268:23 *268:31 14.2143 
5 *268:31 *1267:C1 11.0679 
6 *268:31 *268:46 19.375 
7 *268:46 *268:50 5.07143 
8 *268:50 *268:58 4.80357 
9 *268:58 *1273:C1 11.0857 
10 *268:58 *268:79 24.8036 
11 *268:79 *268:83 8.875 
12 *268:83 *1259:A 19.0857 
13 *268:83 *1275:C1 20.9429 
14 *268:79 *1277:C1 9.3 
15 *268:50 *268:112 0.428571 
16 *268:112 *1269:C1 9.83571 
17 *268:112 *1271:C1 9.3 
18 *268:46 *1169:C1 9.3 
19 *268:23 *1159:C1 17.4964 
*END

*D_NET *269 0.0147032
*CONN
*I *1171:C1 I *D sky130_fd_sc_hd__o211a_2
*I *1161:C1 I *D sky130_fd_sc_hd__o211a_2
*I *1205:C1 I *D sky130_fd_sc_hd__o311a_2
*I *1195:C1 I *D sky130_fd_sc_hd__o311a_2
*I *1163:C1 I *D sky130_fd_sc_hd__o211a_2
*I *1165:C1 I *D sky130_fd_sc_hd__o211a_2
*I *1197:C1 I *D sky130_fd_sc_hd__o311a_2
*I *1201:C1 I *D sky130_fd_sc_hd__o211a_2
*I *1183:A I *D sky130_fd_sc_hd__and2_2
*I *1193:C1 I *D sky130_fd_sc_hd__o311a_2
*I *1369:X O *D sky130_fd_sc_hd__clkdlybuf4s25_1
*CAP
1 *1171:C1 0.000552327
2 *1161:C1 0
3 *1205:C1 0.000398073
4 *1195:C1 1.16062e-05
5 *1163:C1 0.000318646
6 *1165:C1 2.06112e-05
7 *1197:C1 0
8 *1201:C1 0
9 *1183:A 3.82418e-05
10 *1193:C1 4.60972e-05
11 *1369:X 0.000268454
12 *269:129 0.000874209
13 *269:108 0.000775428
14 *269:97 0.000335533
15 *269:66 0.000608974
16 *269:57 0.00066355
17 *269:38 0.00109678
18 *269:25 0.00135743
19 *269:4 0.000662335
20 *1171:C1 *289:10 9.90431e-05
21 *1183:A *353:40 0
22 *1205:C1 *1367:A 9.0145e-05
23 *269:38 *1178:A1 7.77751e-05
24 *269:38 *1199:A 9.25014e-06
25 *269:38 *353:40 3.98662e-05
26 *269:38 *353:42 5.33334e-05
27 *269:38 *354:75 0.00012401
28 *269:57 *1199:A 0.000216771
29 *269:66 *1165:A1 0.000170706
30 *269:97 *1194:B1_N 4.46186e-06
31 *269:97 *1207:C1 0
32 *269:108 *1194:B1_N 3.69697e-05
33 *269:129 *1194:B1_N 9.97648e-05
34 rx_data[3] *1163:C1 9.71197e-05
35 rx_data[3] *269:66 0.00065196
36 rx_data[5] *1171:C1 4.70078e-05
37 *1162:A *1163:C1 0.000277524
38 *1163:B1 *1163:C1 8.16036e-05
39 *1165:A2 *1165:C1 3.99614e-06
40 *1165:A2 *269:66 2.59355e-05
41 *1171:B1 *1171:C1 1.97695e-05
42 *1193:A2 *1193:C1 2.89016e-05
43 *1193:A2 *269:97 7.77652e-05
44 *1194:A2 *1195:C1 5.52302e-05
45 *1195:B1 *1195:C1 5.52302e-05
46 *1196:A1 *269:57 1.66503e-05
47 *1197:A1 *269:57 5.33005e-05
48 *1197:A3 *269:57 0.00014285
49 *1200:C *269:57 0
50 *1205:A1 *1205:C1 9.90431e-05
51 *1205:A2 *1205:C1 0.000152029
52 *1205:A3 *1205:C1 8.07313e-05
53 *1308:CLK *269:25 0.000396905
54 *1308:D *269:25 9.30783e-05
55 *1313:D *269:57 6.25963e-05
56 *1446:A *1171:C1 0.000405733
57 *1449:A *1171:C1 5.80217e-05
58 *1449:A *269:129 0
59 *94:8 *269:25 1.05947e-05
60 *94:8 *269:38 2.87555e-06
61 *119:6 *269:38 0.000574067
62 *119:10 *269:38 0.000125731
63 *119:10 *269:57 0.00055683
64 *119:14 *269:57 9.60875e-05
65 *158:31 *1163:C1 4.33438e-05
66 *159:59 *269:129 0.000344917
67 *159:76 *1171:C1 0.000253422
68 *159:91 *1163:C1 0
69 *179:60 *269:97 0.000311484
70 *267:17 *1205:C1 0.000165744
71 *267:31 *1205:C1 0.000184745
72 *267:31 *269:108 0
*RES
1 *1369:X *269:4 9.3 
2 *269:4 *1193:C1 10.2643 
3 *269:4 *269:25 17.2857 
4 *269:25 *1183:A 10.0321 
5 *269:25 *269:38 15.3036 
6 *269:38 *1201:C1 13.8 
7 *269:38 *269:57 15.5893 
8 *269:57 *1197:C1 9.3 
9 *269:57 *269:66 7.125 
10 *269:66 *1165:C1 9.72857 
11 *269:66 *1163:C1 26.05 
12 *1369:X *269:97 19.2286 
13 *269:97 *1195:C1 14.3357 
14 *269:97 *269:108 1.03571 
15 *269:108 *1205:C1 22.3179 
16 *269:108 *269:129 7.75 
17 *269:129 *1161:C1 13.8 
18 *269:129 *1171:C1 25.7464 
*END

*D_NET *270 0.00329084
*CONN
*I *1267:A1 I *D sky130_fd_sc_hd__o311a_2
*I *1437:X O *D sky130_fd_sc_hd__clkdlybuf4s25_1
*CAP
1 *1267:A1 0.000852528
2 *1437:X 0.000852528
3 *1267:A1 *1079:A0 0.00014183
4 *1267:A1 *1081:A0 0.000424203
5 *1267:A1 *1268:A 0
6 *1267:A1 *1417:A 6.81083e-05
7 *1267:A3 *1267:A1 0.000269088
8 *1269:A3 *1267:A1 0.000277277
9 *1269:B1 *1267:A1 2.97074e-05
10 *1437:A *1267:A1 5.33334e-05
11 *1439:A *1267:A1 0.000116749
12 *3:30 *1267:A1 1.53418e-05
13 *18:15 *1267:A1 0
14 *219:67 *1267:A1 0
15 *239:89 *1267:A1 0.000190149
*RES
1 *1437:X *1267:A1 46.8679 
*END

*D_NET *271 0.0148892
*CONN
*I *1157:C1 I *D sky130_fd_sc_hd__o211a_2
*I *1186:A I *D sky130_fd_sc_hd__and3_2
*I *1191:C1 I *D sky130_fd_sc_hd__o211a_2
*I *1095:B I *D sky130_fd_sc_hd__and3_2
*I *1178:C1 I *D sky130_fd_sc_hd__o211a_2
*I *1369:A I *D sky130_fd_sc_hd__clkdlybuf4s25_1
*I *1099:A2 I *D sky130_fd_sc_hd__a31o_2
*I *1124:B1 I *D sky130_fd_sc_hd__o21a_2
*I *1153:C I *D sky130_fd_sc_hd__and4_2
*I *1203:C1 I *D sky130_fd_sc_hd__o311a_2
*I *1370:X O *D sky130_fd_sc_hd__clkdlybuf4s25_1
*CAP
1 *1157:C1 0.000323325
2 *1186:A 0.000289108
3 *1191:C1 2.23854e-05
4 *1095:B 0
5 *1178:C1 0
6 *1369:A 0.000407718
7 *1099:A2 0.00026351
8 *1124:B1 0.000144851
9 *1153:C 0.000131854
10 *1203:C1 0.00042354
11 *1370:X 0
12 *271:118 0.000871482
13 *271:107 0.000699005
14 *271:76 0.000640233
15 *271:59 0.000669084
16 *271:49 0.000597019
17 *271:45 0.00109825
18 *271:34 0.000701022
19 *271:19 0.00115431
20 *271:4 0.00114655
21 *1124:B1 *1150:A1 0
22 *1124:B1 *1150:A2 1.41706e-05
23 *1124:B1 *368:69 1.78353e-05
24 *1124:B1 *368:93 7.07908e-05
25 *1153:C *1150:A1 0.000123288
26 *1153:C *1420:A 2.97756e-05
27 *1153:C *370:18 2.83916e-05
28 *1157:C1 *1157:A1 0.000225245
29 *1157:C1 *1191:A1 0.000344925
30 *1157:C1 *1389:A 5.52302e-05
31 *1186:A *355:16 5.0725e-05
32 *1203:C1 *1099:A1 0
33 *1369:A *1178:A1 0
34 *1369:A *354:28 7.48091e-05
35 *271:19 *1150:A1 9.33978e-07
36 *271:19 *1420:A 7.32173e-05
37 *271:19 *368:67 7.48301e-06
38 *271:34 *1150:A1 3.06878e-06
39 *271:45 *368:93 5.03694e-05
40 *271:45 *368:108 6.7309e-05
41 *271:59 *1155:B 7.83659e-05
42 *271:59 *370:91 7.6644e-05
43 *271:76 *1370:A 0
44 *271:118 *1191:A1 0.000336887
45 *1099:A3 *1099:A2 9.41642e-05
46 *1108:B *1203:C1 0
47 *1153:D *1153:C 1.52978e-05
48 *1155:A *1099:A2 0.000229456
49 *1155:C *1099:A2 4.88637e-05
50 *1155:C *271:59 4.13496e-05
51 *1157:B1 *1157:C1 3.67356e-05
52 *1157:B1 *1186:A 6.74911e-05
53 *1175:A2 *271:45 0
54 *1175:B1 *271:19 9.90367e-05
55 *1177:A *1369:A 3.51442e-05
56 *1177:A *271:76 0
57 *1178:B1 *271:76 7.92879e-05
58 *1179:B *1369:A 8.32242e-05
59 *1182:A2 *1369:A 0
60 *1182:A2 *271:76 2.09495e-05
61 *1183:B *1369:A 0
62 *1184:B1 *271:45 0
63 *1186:B *1186:A 1.72894e-05
64 *1186:C *1186:A 0.00010326
65 *1190:C *271:76 0
66 *1203:A3 *1203:C1 2.61337e-05
67 *1308:CLK *1369:A 9.71197e-05
68 *1308:D *1369:A 0
69 *1309:CLK *1157:C1 4.49293e-05
70 *1309:CLK *1186:A 0.000333493
71 *1310:D *1157:C1 0
72 *1347:D *1203:C1 0.000175519
73 *93:12 *1186:A 1.41029e-05
74 *94:10 *1369:A 0.000292701
75 *116:48 *271:45 9.87983e-06
76 *116:50 *271:49 1.39726e-05
77 *116:63 *271:49 9.28602e-05
78 *119:50 *1157:C1 0
79 *120:8 *271:45 0
80 *121:8 *271:49 0.000209229
81 *121:8 *271:59 2.89016e-05
82 *127:23 *1203:C1 5.62995e-05
83 *127:23 *271:19 0.000278392
84 *129:20 *1203:C1 2.34204e-05
85 *158:27 *1186:A 0
86 *169:18 *271:59 0.000168939
87 *169:18 *271:76 4.25716e-05
88 *170:8 *1153:C 0
89 *172:17 *1369:A 8.33463e-05
90 *185:8 *271:45 9.25014e-06
91 *185:8 *271:107 0.000266092
92 *185:12 *271:107 5.33005e-05
93 *185:38 *271:107 2.24646e-05
94 *246:12 *271:107 0.000120509
95 *246:12 *271:118 0.000102218
96 *266:81 *1203:C1 0
97 *266:102 *1099:A2 2.24195e-05
98 *266:102 *1203:C1 1.69115e-05
99 *266:117 *271:76 0
*RES
1 *1370:X *271:4 9.3 
2 *271:4 *1203:C1 26.05 
3 *271:4 *271:19 9.16071 
4 *271:19 *1153:C 21.4607 
5 *271:19 *271:34 7.91071 
6 *271:34 *1124:B1 17.2643 
7 *271:34 *271:45 4.98214 
8 *271:45 *271:49 10.375 
9 *271:49 *271:59 12.7321 
10 *271:59 *1099:A2 14.3714 
11 *271:59 *271:76 13.8036 
12 *271:76 *1369:A 27.7107 
13 *271:76 *1178:C1 9.3 
14 *271:49 *1095:B 9.3 
15 *271:45 *271:107 12.5 
16 *271:107 *1191:C1 9.72857 
17 *271:107 *271:118 9.55357 
18 *271:118 *1186:A 20.8357 
19 *271:118 *1157:C1 22.3536 
*END

*D_NET *272 0.0144563
*CONN
*I *1281:C1 I *D sky130_fd_sc_hd__o311a_2
*I *1279:C1 I *D sky130_fd_sc_hd__o311a_2
*I *1207:C1 I *D sky130_fd_sc_hd__o311a_2
*I *1370:A I *D sky130_fd_sc_hd__clkdlybuf4s25_1
*I *1368:A I *D sky130_fd_sc_hd__clkdlybuf4s25_1
*I *1371:X O *D sky130_fd_sc_hd__clkdlybuf4s25_1
*CAP
1 *1281:C1 0.00025618
2 *1279:C1 0.000342166
3 *1207:C1 0.000758852
4 *1370:A 0.000455002
5 *1368:A 0
6 *1371:X 0
7 *272:57 0.00325964
8 *272:23 0.00164311
9 *272:12 0.000759324
10 *272:6 0.00299137
11 *1207:C1 *1179:A 0.000342502
12 *1207:C1 *1194:B1_N 0
13 *1207:C1 *1387:A 4.87953e-05
14 *1279:C1 *1081:A2 0.000222666
15 *1279:C1 *1408:A 0.000134773
16 *1281:C1 *396:10 9.01237e-05
17 *1370:A *1099:A1 0
18 *1370:A *1155:B 0
19 *1370:A *1430:A 0.000122417
20 *1370:A *370:16 0.000337644
21 *272:12 *1367:A 0
22 *272:23 *1179:A 7.43578e-06
23 *272:57 *1159:A1 0
24 *272:57 *1297:D 0
25 *272:57 *1367:A 0
26 *272:57 *396:10 1.87955e-05
27 *1099:A3 *1370:A 1.78447e-05
28 *1099:B1 *1370:A 7.50601e-05
29 *1108:B *1370:A 2.78729e-05
30 *1174:A2 *1370:A 1.02504e-05
31 *1177:A *1207:C1 1.99099e-05
32 *1177:A *1370:A 0.000122951
33 *1181:A *1207:C1 0.00015234
34 *1193:A2 *1207:C1 0
35 *1249:A *272:57 1.28585e-05
36 *1272:B *272:57 0
37 *1279:B1 *1279:C1 0.000200715
38 *1279:B1 *272:57 0
39 *1281:B1 *1281:C1 0.000257234
40 *1281:B1 *272:57 0.000115082
41 *1308:CLK *1207:C1 0
42 *1377:A *272:12 9.80029e-05
43 *1434:A *1281:C1 0
44 *94:10 *1207:C1 6.9019e-05
45 *117:16 *1370:A 0.000111073
46 *158:63 *1207:C1 0.000338351
47 *169:18 *1370:A 0
48 *172:17 *1207:C1 0.000329333
49 *173:12 *1207:C1 1.31516e-05
50 *173:12 *1370:A 0.000118339
51 *173:36 *1207:C1 1.41029e-05
52 *179:60 *1207:C1 0
53 *185:66 *1207:C1 0.0001656
54 *246:56 *1370:A 0
55 *256:10 *272:12 0.000207766
56 *256:10 *272:23 5.33433e-05
57 *265:69 *272:57 7.80714e-06
58 *265:93 *272:57 1.94879e-05
59 *268:8 *272:12 0.000107974
60 *269:97 *1207:C1 0
61 *271:76 *1370:A 0
*RES
1 *1371:X *272:6 13.8 
2 *272:6 *272:12 12.3929 
3 *272:12 *1368:A 9.3 
4 *272:12 *272:23 11.7321 
5 *272:23 *1370:A 26.3714 
6 *272:23 *1207:C1 33.3893 
7 *272:6 *272:57 22.6731 
8 *272:57 *1279:C1 19.7107 
9 *272:57 *1281:C1 20.3 
*END

*D_NET *273 0.0156568
*CONN
*I *1261:B1 I *D sky130_fd_sc_hd__a31o_2
*I *1265:B1 I *D sky130_fd_sc_hd__a21oi_2
*I *1075:A I *D sky130_fd_sc_hd__inv_2
*I *1108:A I *D sky130_fd_sc_hd__or3b_2
*I *1107:A I *D sky130_fd_sc_hd__nor2_2
*I *1252:C1 I *D sky130_fd_sc_hd__a211oi_2
*I *1242:C1 I *D sky130_fd_sc_hd__a211o_2
*I *1214:A I *D sky130_fd_sc_hd__nor2_2
*I *1172:A I *D sky130_fd_sc_hd__or2_2
*I *1240:A I *D sky130_fd_sc_hd__or3_2
*I *1372:X O *D sky130_fd_sc_hd__clkdlybuf4s25_1
*CAP
1 *1261:B1 5.61395e-05
2 *1265:B1 0.00027394
3 *1075:A 2.35052e-05
4 *1108:A 0.00144951
5 *1107:A 6.54071e-05
6 *1252:C1 0
7 *1242:C1 0
8 *1214:A 0
9 *1172:A 0.000104226
10 *1240:A 5.31801e-05
11 *1372:X 0.000100474
12 *273:105 0.00196428
13 *273:97 0.00109412
14 *273:78 0.00107384
15 *273:65 0.00092038
16 *273:35 0.000362046
17 *273:14 0.000534772
18 *273:12 0.000832485
19 *273:10 0.000694284
20 *273:8 0.000436034
21 *1107:A *1074:A 0
22 *1108:A *1152:A2 0
23 *1108:A *1418:A 0
24 *1108:A *367:27 0
25 *1108:A *367:31 0.000142856
26 *1108:A *368:17 0.000142856
27 *1261:B1 *1067:A 4.46186e-06
28 *1261:B1 *387:10 0
29 *1261:B1 *387:51 5.71472e-05
30 *1265:B1 *1084:B 2.286e-05
31 *273:8 *387:10 0
32 *273:10 *1067:A 2.65075e-05
33 *273:10 *1084:A 0.000145594
34 *273:65 *1242:A1 1.10868e-05
35 *273:78 *1242:A1 0.000447104
36 *273:97 *1251:B1_N 0.000121842
37 *273:105 *384:8 0.000129868
38 *273:105 *384:27 0.000198842
39 *1110:A1 *273:105 7.3078e-05
40 *1112:A3 *1108:A 0.000574067
41 *1172:B *273:14 0
42 *1172:B *273:35 3.07555e-05
43 *1173:A *1107:A 4.58764e-05
44 *1214:B *1172:A 0
45 *1240:C *273:14 0
46 *1240:C *273:65 0.000281777
47 *1241:B1_N *1240:A 5.62995e-05
48 *1242:A2 *273:65 1.97695e-05
49 *1242:B1 *273:65 0.000221409
50 *1254:B1 *273:97 0.000332506
51 *1263:B1 *273:10 0
52 *1265:A1 *1265:B1 0.000144773
53 *1265:A1 *273:10 0
54 *1265:A2 *1265:B1 0.000120577
55 *1305:D *1107:A 0.000100831
56 *1305:D *1108:A 8.42801e-05
57 *1305:D *273:105 2.31791e-05
58 *1335:D *1265:B1 1.74352e-05
59 *1346:CLK *1107:A 5.80706e-06
60 *1371:A *273:105 4.46186e-06
61 *124:30 *1108:A 1.69961e-05
62 *124:34 *1108:A 0.000337439
63 *195:39 *273:78 0
64 *195:39 *273:97 0
65 *195:50 *273:97 0
66 *196:51 *1261:B1 2.89114e-05
67 *220:8 *273:97 0.000397918
68 *225:14 *273:8 8.18871e-05
69 *225:14 *273:10 1.0562e-05
70 *239:23 *1075:A 2.89114e-05
71 *239:23 *273:97 2.24079e-05
72 *239:33 *273:78 0.000259782
73 *239:33 *273:97 7.65336e-06
74 *241:8 *1107:A 1.3142e-05
75 *241:24 *1172:A 0.000105163
76 *241:24 *1240:A 9.90431e-05
77 *241:24 *273:35 0.000359997
78 *241:73 *273:105 0.000221137
79 *248:18 *273:8 0
80 *248:33 *273:105 0
81 *266:38 *1108:A 3.92757e-05
*RES
1 *1372:X *273:8 15.8982 
2 *273:8 *273:10 5.4375 
3 *273:10 *273:12 2.25 
4 *273:12 *273:14 3.76786 
5 *273:14 *1240:A 15.4786 
6 *273:14 *273:35 17.6429 
7 *273:35 *1172:A 11.925 
8 *273:35 *1214:A 9.3 
9 *273:12 *273:65 13.6429 
10 *273:65 *1242:C1 9.3 
11 *273:65 *273:78 14.3571 
12 *273:78 *1252:C1 13.8 
13 *273:78 *273:97 15.3571 
14 *273:97 *273:105 15.6071 
15 *273:105 *1107:A 15.4429 
16 *273:105 *1108:A 43.5857 
17 *273:97 *1075:A 9.83571 
18 *273:10 *1265:B1 19.3 
19 *273:8 *1261:B1 15.1482 
*END

*D_NET *274 0.00145842
*CONN
*I *1173:B I *D sky130_fd_sc_hd__or2_2
*I *1373:X O *D sky130_fd_sc_hd__dlygate4sd3_1
*CAP
1 *1173:B 0.000680527
2 *1373:X 0.000680527
3 *1173:B *372:14 0
4 *1350:A *1173:B 8.61317e-05
5 *239:51 *1173:B 1.12387e-05
6 *241:8 *1173:B 0
*RES
1 *1373:X *1173:B 35.6357 
*END

*D_NET *275 0.00099799
*CONN
*I *1140:A1 I *D sky130_fd_sc_hd__o21ai_2
*I *1141:A1 I *D sky130_fd_sc_hd__a21oi_2
*I *1374:X O *D sky130_fd_sc_hd__dlygate4sd3_1
*CAP
1 *1140:A1 0.000231872
2 *1141:A1 0.000182081
3 *1374:X 0
4 *275:4 0.000413953
5 *1140:B1 *1141:A1 1.40306e-05
6 *1141:B1 *1140:A1 0.000156054
*RES
1 *1374:X *275:4 9.3 
2 *275:4 *1141:A1 12.3357 
3 *275:4 *1140:A1 22.9071 
*END

*D_NET *276 0.000248462
*CONN
*I *1241:A1 I *D sky130_fd_sc_hd__o21ba_2
*I *1375:X O *D sky130_fd_sc_hd__dlygate4sd3_1
*CAP
1 *1241:A1 5.24056e-05
2 *1375:X 5.24056e-05
3 *1248:C1 *1241:A1 0.000143651
*RES
1 *1375:X *1241:A1 19.9571 
*END

*D_NET *277 0.000712761
*CONN
*I *1202:B1_N I *D sky130_fd_sc_hd__o21bai_2
*I *1167:A1 I *D sky130_fd_sc_hd__o211a_2
*I *1376:X O *D sky130_fd_sc_hd__dlygate4sd3_1
*CAP
1 *1202:B1_N 0.000223777
2 *1167:A1 0
3 *1376:X 0.000104454
4 *277:6 0.000328231
5 *1202:A2 *1202:B1_N 0
6 *1377:A *277:6 5.62995e-05
*RES
1 *1376:X *277:6 11.3268 
2 *277:6 *1167:A1 9.3 
3 *277:6 *1202:B1_N 13.0232 
*END

*D_NET *278 0.000354173
*CONN
*I *1301:D I *D sky130_fd_sc_hd__dfxtp_2
*I *1377:X O *D sky130_fd_sc_hd__dlygate4sd3_1
*CAP
1 *1301:D 0.000175426
2 *1377:X 0.000175426
3 *1371:A *1301:D 0
4 *1377:A *1301:D 0
5 *244:85 *1301:D 3.32132e-06
*RES
1 *1377:X *1301:D 30.3366 
*END

*D_NET *279 0.00250329
*CONN
*I *1192:B1_N I *D sky130_fd_sc_hd__o21bai_2
*I *1159:A1 I *D sky130_fd_sc_hd__o211a_2
*I *1378:X O *D sky130_fd_sc_hd__dlygate4sd3_1
*CAP
1 *1192:B1_N 0.000407535
2 *1159:A1 0.000171803
3 *1378:X 3.7533e-05
4 *279:6 0.000616871
5 *1159:A1 *1367:A 0.000270958
6 *1192:B1_N *1378:A 1.98839e-05
7 *1158:A *1159:A1 2.57194e-05
8 *1166:A *1192:B1_N 2.89016e-05
9 *1166:B *1192:B1_N 0.000347339
10 *1449:A *1192:B1_N 0.000345632
11 *268:31 *1192:B1_N 0.000175892
12 *268:31 *279:6 5.52238e-05
13 *272:57 *1159:A1 0
*RES
1 *1378:X *279:6 9.83571 
2 *279:6 *1159:A1 22.2955 
3 *279:6 *1192:B1_N 27.0321 
*END

*D_NET *280 0.000496756
*CONN
*I *1297:D I *D sky130_fd_sc_hd__dfxtp_2
*I *1379:X O *D sky130_fd_sc_hd__dlygate4sd3_1
*CAP
1 *1297:D 0.000145915
2 *1379:X 0.000145915
3 *1297:D *1415:A 0
4 *1297:CLK *1297:D 5.58666e-05
5 *268:31 *1297:D 0.000149059
6 *272:57 *1297:D 0
*RES
1 *1379:X *1297:D 30.9438 
*END

*D_NET *281 0.00312432
*CONN
*I *1269:A1 I *D sky130_fd_sc_hd__o311a_2
*I *1438:X O *D sky130_fd_sc_hd__clkdlybuf4s25_1
*CAP
1 *1269:A1 0.000861879
2 *1438:X 0.000861879
3 *1269:A1 *1273:A1 0.000869711
4 *1271:A2 *1269:A1 0
5 *1273:C1 *1269:A1 0.00016525
6 *102:100 *1269:A1 1.0486e-05
7 *102:107 *1269:A1 0.000238111
8 *268:58 *1269:A1 0.000117004
*RES
1 *1438:X *1269:A1 33.1714 
*END

*D_NET *282 0.00179081
*CONN
*I *1073:A I *D sky130_fd_sc_hd__inv_2
*I *1126:A2 I *D sky130_fd_sc_hd__a31o_2
*I *1380:X O *D sky130_fd_sc_hd__dlygate4sd3_1
*CAP
1 *1073:A 0
2 *1126:A2 0.000386795
3 *1380:X 6.49032e-05
4 *282:6 0.000451698
5 *1127:A1 *1126:A2 0.000308457
6 *1127:A2 *1126:A2 1.58559e-05
7 *1127:B1 *1126:A2 7.2266e-05
8 *1282:CLK *1126:A2 0.000242324
9 *1330:CLK *282:6 0.000140243
10 *1381:A *1126:A2 8.10737e-06
11 *139:16 *1126:A2 4.34677e-05
12 *139:22 *1126:A2 5.66971e-05
*RES
1 *1380:X *282:6 10.6571 
2 *282:6 *1126:A2 26.4786 
3 *282:6 *1073:A 9.3 
*END

*D_NET *283 0.000326134
*CONN
*I *1282:D I *D sky130_fd_sc_hd__dfxtp_2
*I *1381:X O *D sky130_fd_sc_hd__dlygate4sd3_1
*CAP
1 *1282:D 6.73218e-05
2 *1381:X 6.73218e-05
3 *1282:D *343:23 0.000165555
4 *1282:CLK *1282:D 2.59355e-05
*RES
1 *1381:X *1282:D 20.2295 
*END

*D_NET *284 0.00105442
*CONN
*I *1169:A1 I *D sky130_fd_sc_hd__o211a_2
*I *1204:B1_N I *D sky130_fd_sc_hd__o21bai_2
*I *1382:X O *D sky130_fd_sc_hd__dlygate4sd3_1
*CAP
1 *1169:A1 5.47255e-05
2 *1204:B1_N 0.000211193
3 *1382:X 0.000265918
4 *1204:B1_N *1382:A 0
5 *1169:A2 *1204:B1_N 0.000230482
6 *1169:B1 *1169:A1 0.000172394
7 *1169:B1 *1204:B1_N 5.52238e-05
8 *1205:B1 *1204:B1_N 5.52302e-05
9 *1316:D *1204:B1_N 9.25014e-06
10 *268:46 *1204:B1_N 0
*RES
1 *1382:X *1204:B1_N 31.9571 
2 *1382:X *1169:A1 20.2161 
*END

*D_NET *285 0.0004001
*CONN
*I *1302:D I *D sky130_fd_sc_hd__dfxtp_2
*I *1383:X O *D sky130_fd_sc_hd__dlygate4sd3_1
*CAP
1 *1302:D 0.00020005
2 *1383:X 0.00020005
3 *1168:A *1302:D 0
4 *1383:A *1302:D 0
5 *1450:A *1302:D 0
*RES
1 *1383:X *1302:D 30.7473 
*END

*D_NET *286 0.00132058
*CONN
*I *1134:A1 I *D sky130_fd_sc_hd__o21ai_2
*I *1135:A1 I *D sky130_fd_sc_hd__a21oi_2
*I *1384:X O *D sky130_fd_sc_hd__dlygate4sd3_1
*CAP
1 *1134:A1 0
2 *1135:A1 0.000213702
3 *1384:X 7.5153e-05
4 *286:6 0.000288855
5 *1135:A1 *351:8 0
6 *1135:B1 *1135:A1 0.000320031
7 *1286:D *1135:A1 3.5707e-05
8 *137:20 *1135:A1 5.76121e-05
9 *137:26 *1135:A1 0
10 *242:18 *1135:A1 0
11 *242:24 *1135:A1 0.00014285
12 *264:58 *286:6 9.90431e-05
13 *264:69 *286:6 8.76257e-05
*RES
1 *1384:X *286:6 11.0679 
2 *286:6 *1135:A1 24.3357 
3 *286:6 *1134:A1 9.3 
*END

*D_NET *287 0.00125053
*CONN
*I *1206:B1_N I *D sky130_fd_sc_hd__o21bai_2
*I *1171:A1 I *D sky130_fd_sc_hd__o211a_2
*I *1385:X O *D sky130_fd_sc_hd__dlygate4sd3_1
*CAP
1 *1206:B1_N 0.000343726
2 *1171:A1 9.67964e-05
3 *1385:X 6.44212e-05
4 *287:6 0.000504943
5 *1206:B1_N *1385:A 0
6 *1170:A *1206:B1_N 0
7 *1171:A2 *1171:A1 2.23354e-06
8 *1171:B1 *1171:A1 2.80068e-05
9 *1171:B1 *1206:B1_N 9.78414e-05
10 *1206:A2 *1206:B1_N 0
11 *1317:D *1206:B1_N 5.01117e-05
12 *1386:A *287:6 2.27416e-05
13 *158:53 *1206:B1_N 0
14 *159:89 *1171:A1 2.97057e-05
15 *159:89 *287:6 1.00073e-05
16 *247:19 *1206:B1_N 0
17 *267:31 *1206:B1_N 0
*RES
1 *1385:X *287:6 10.2464 
2 *287:6 *1171:A1 11.0098 
3 *287:6 *1206:B1_N 24.8 
*END

*D_NET *288 0.000370967
*CONN
*I *1303:D I *D sky130_fd_sc_hd__dfxtp_2
*I *1386:X O *D sky130_fd_sc_hd__dlygate4sd3_1
*CAP
1 *1303:D 0.000140578
2 *1386:X 0.000140578
3 *1170:A *1303:D 1.87955e-05
4 *1451:A *1303:D 5.45809e-05
5 *247:64 *1303:D 1.64343e-05
*RES
1 *1386:X *1303:D 29.9438 
*END

*D_NET *289 0.00178166
*CONN
*I *1161:A1 I *D sky130_fd_sc_hd__o211a_2
*I *1194:B1_N I *D sky130_fd_sc_hd__o21bai_2
*I *1387:X O *D sky130_fd_sc_hd__dlygate4sd3_1
*CAP
1 *1161:A1 7.06585e-06
2 *1194:B1_N 0.000335156
3 *1387:X 0.000113878
4 *289:10 0.000456099
5 *289:10 *1387:A 0
6 *1161:B1 *1161:A1 1.28809e-05
7 *1171:C1 *289:10 9.90431e-05
8 *1207:C1 *1194:B1_N 0
9 *158:63 *1194:B1_N 0
10 *159:59 *1194:B1_N 0.000342488
11 *159:76 *1194:B1_N 1.02504e-05
12 *159:76 *289:10 0.000263604
13 *269:97 *1194:B1_N 4.46186e-06
14 *269:108 *1194:B1_N 3.69697e-05
15 *269:129 *1194:B1_N 9.97648e-05
*RES
1 *1387:X *289:10 16.9964 
2 *289:10 *1194:B1_N 21.5143 
3 *289:10 *1161:A1 13.9295 
*END

*D_NET *290 0.000801144
*CONN
*I *1298:D I *D sky130_fd_sc_hd__dfxtp_2
*I *1388:X O *D sky130_fd_sc_hd__dlygate4sd3_1
*CAP
1 *1298:D 0.000246045
2 *1388:X 0.000246045
3 *1312:CLK *1298:D 9.14355e-05
4 *158:53 *1298:D 6.62868e-05
5 *247:64 *1298:D 0.000151333
6 *253:10 *1298:D 0
*RES
1 *1388:X *1298:D 32.1714 
*END

*D_NET *291 0.00340345
*CONN
*I *1196:B1_N I *D sky130_fd_sc_hd__o21bai_2
*I *1163:A1 I *D sky130_fd_sc_hd__o211a_2
*I *1389:X O *D sky130_fd_sc_hd__dlygate4sd3_1
*CAP
1 *1196:B1_N 0
2 *1163:A1 0.000441188
3 *1389:X 0.000423275
4 *291:12 0.000864463
5 *291:12 *1165:A1 0
6 *291:12 *1201:A1 0
7 *291:12 *1299:D 0.000246614
8 *1163:A2 *1163:A1 8.28514e-05
9 *1196:A2 *291:12 0.000218026
10 *1197:B1 *291:12 5.52302e-05
11 *1299:CLK *291:12 0.000184745
12 *1300:CLK *291:12 0.000153054
13 *1313:D *1163:A1 0
14 *1314:D *291:12 0.000108848
15 *1390:A *1163:A1 0
16 *158:43 *1163:A1 4.46186e-06
17 *158:43 *291:12 1.54142e-05
18 *159:89 *1163:A1 0.000172536
19 *179:89 *291:12 0.00043274
*RES
1 *1389:X *291:12 31.425 
2 *291:12 *1163:A1 26.9518 
3 *291:12 *1196:B1_N 9.3 
*END

*D_NET *292 0.00370018
*CONN
*I *1271:A1 I *D sky130_fd_sc_hd__o311a_2
*I *1439:X O *D sky130_fd_sc_hd__clkdlybuf4s25_1
*CAP
1 *1271:A1 0.00112743
2 *1439:X 0.00112743
3 *1271:A1 *1081:A0 0
4 *1271:A1 *1417:A 3.06882e-05
5 rx_data[1] *1271:A1 5.33005e-05
6 *1338:D *1271:A1 0.000154762
7 *1437:A *1271:A1 7.80815e-05
8 *1439:A *1271:A1 0.000487738
9 *1440:A *1271:A1 0.000446305
10 *1445:A *1271:A1 0
11 *3:30 *1271:A1 0.000137308
12 *268:50 *1271:A1 5.71472e-05
*RES
1 *1439:X *1271:A1 47.3857 
*END

*D_NET *293 0.00232256
*CONN
*I *1299:D I *D sky130_fd_sc_hd__dfxtp_2
*I *1390:X O *D sky130_fd_sc_hd__dlygate4sd3_1
*CAP
1 *1299:D 0.000556768
2 *1390:X 0.000556768
3 *1299:D *1165:A1 0
4 *1299:CLK *1299:D 3.9846e-05
5 *1390:A *1299:D 0.000439679
6 *1447:A *1299:D 0.000127163
7 *158:43 *1299:D 0.000355722
8 *291:12 *1299:D 0.000246614
*RES
1 *1390:X *1299:D 38.8723 
*END

*D_NET *294 0.00269112
*CONN
*I *1157:A1 I *D sky130_fd_sc_hd__o211a_2
*I *1191:A1 I *D sky130_fd_sc_hd__o211a_2
*I *1391:X O *D sky130_fd_sc_hd__dlygate4sd3_1
*CAP
1 *1157:A1 0.000215905
2 *1191:A1 0.000182681
3 *1391:X 0
4 *294:6 0.000398586
5 *1157:A1 *1389:A 4.60088e-05
6 *1157:B1 *1157:A1 0.00025664
7 *1157:B1 *1191:A1 0.000347354
8 *1157:C1 *1157:A1 0.000225245
9 *1157:C1 *1191:A1 0.000344925
10 *1296:CLK *1191:A1 4.08637e-05
11 *246:12 *1191:A1 0.000296024
12 *271:118 *1191:A1 0.000336887
*RES
1 *1391:X *294:6 13.8 
2 *294:6 *1191:A1 21.8446 
3 *294:6 *1157:A1 19.983 
*END

*D_NET *295 0.00204761
*CONN
*I *1165:A1 I *D sky130_fd_sc_hd__o211a_2
*I *1201:A1 I *D sky130_fd_sc_hd__o211a_2
*I *1392:X O *D sky130_fd_sc_hd__dlygate4sd3_1
*CAP
1 *1165:A1 0.00028188
2 *1201:A1 0.000341397
3 *1392:X 3.92213e-05
4 *295:8 0.000662499
5 rx_data[4] *295:8 5.52302e-05
6 *1165:A2 *1165:A1 3.99614e-06
7 *1299:D *1165:A1 0
8 *1300:CLK *1201:A1 0.000139087
9 *1300:D *1165:A1 0.000114121
10 *1300:D *1201:A1 0.000182329
11 *1314:D *1201:A1 5.71472e-05
12 *1390:A *1165:A1 0
13 *269:66 *1165:A1 0.000170706
14 *291:12 *1165:A1 0
15 *291:12 *1201:A1 0
*RES
1 *1392:X *295:8 14.3357 
2 *295:8 *1201:A1 21.4339 
3 *295:8 *1165:A1 19.5411 
*END

*D_NET *296 0.000218873
*CONN
*I *1156:A I *D sky130_fd_sc_hd__or2_2
*I *1393:X O *D sky130_fd_sc_hd__dlygate4sd3_1
*CAP
1 *1156:A 6.34277e-05
2 *1393:X 6.34277e-05
3 *158:16 *1156:A 3.48705e-05
4 *158:27 *1156:A 5.71472e-05
*RES
1 *1393:X *1156:A 19.9571 
*END

*D_NET *297 0.000399868
*CONN
*I *1164:A I *D sky130_fd_sc_hd__or2_2
*I *1394:X O *D sky130_fd_sc_hd__dlygate4sd3_1
*CAP
1 *1164:A 0.000113593
2 *1394:X 0.000113593
3 rx_data[4] *1164:A 0.000134734
4 *158:31 *1164:A 3.79467e-05
*RES
1 *1394:X *1164:A 29.8857 
*END

*D_NET *298 0.000558459
*CONN
*I *1136:A1 I *D sky130_fd_sc_hd__o21ai_2
*I *1395:X O *D sky130_fd_sc_hd__dlygate4sd3_1
*CAP
1 *1136:A1 8.76302e-05
2 *1395:X 8.76302e-05
3 *1136:A1 *1119:B 0.000125731
4 *1119:C *1136:A1 6.42338e-05
5 *1139:A_N *1136:A1 0.0001399
6 *137:10 *1136:A1 5.33334e-05
*RES
1 *1395:X *1136:A1 30.6 
*END

*D_NET *299 0.000549981
*CONN
*I *1130:A1 I *D sky130_fd_sc_hd__o21ai_2
*I *1396:X O *D sky130_fd_sc_hd__dlygate4sd3_1
*CAP
1 *1130:A1 0.000198735
2 *1396:X 0.000198735
3 *1130:A1 *1121:C 8.53412e-05
4 *1130:A1 *351:43 5.52302e-05
5 *1130:A1 *352:38 1.19402e-05
6 *242:12 *1130:A1 0
*RES
1 *1396:X *1130:A1 31.4214 
*END

*D_NET *300 0.00673644
*CONN
*I *1151:A1 I *D sky130_fd_sc_hd__o2111a_2
*I *1112:A2 I *D sky130_fd_sc_hd__a31o_2
*I *1106:A1 I *D sky130_fd_sc_hd__a21oi_2
*I *1074:A I *D sky130_fd_sc_hd__inv_2
*I *1397:X O *D sky130_fd_sc_hd__dlygate4sd3_1
*CAP
1 *1151:A1 0.000714671
2 *1112:A2 0
3 *1106:A1 0
4 *1074:A 0.000298841
5 *1397:X 0
6 *300:42 0.00133875
7 *300:8 0.000420568
8 *300:4 0.000745807
9 *1151:A1 *1123:A 4.43355e-05
10 *1151:A1 *1123:B 5.52238e-05
11 *300:42 *1111:B2 6.26743e-05
12 *300:42 *1152:A2 9.65161e-05
13 *300:42 *1418:A 0.000232399
14 *300:42 *370:26 0.000330806
15 *1106:A2 *1074:A 0
16 *1106:A2 *300:8 7.90536e-05
17 *1106:B1 *300:8 5.71472e-05
18 *1106:B1 *300:42 0.000276211
19 *1107:A *1074:A 0
20 *1107:B *1074:A 5.52302e-05
21 *1109:A *1074:A 9.25014e-06
22 *1110:A2 *1074:A 0
23 *1111:A2 *300:42 0.000358397
24 *1111:B1 *300:42 0.00014948
25 *1112:A1 *300:42 1.02504e-05
26 *1112:A3 *1151:A1 3.57366e-05
27 *1112:B1 *300:42 4.43256e-05
28 *1153:A *1151:A1 0.000144475
29 *1295:D *1151:A1 0.000743433
30 *117:16 *300:42 3.97526e-05
31 *248:33 *1074:A 0.000377898
32 *266:38 *1151:A1 1.52077e-05
*RES
1 *1397:X *300:4 9.3 
2 *300:4 *300:8 2.60714 
3 *300:8 *1074:A 24.3536 
4 *300:8 *1106:A1 9.3 
5 *300:4 *300:42 25.8214 
6 *300:42 *1112:A2 9.3 
7 *300:42 *1151:A1 24.3714 
*END

*D_NET *301 0.000281665
*CONN
*I *1253:B1 I *D sky130_fd_sc_hd__a21oi_2
*I *1398:X O *D sky130_fd_sc_hd__dlygate4sd3_1
*CAP
1 *1253:B1 3.95974e-05
2 *1398:X 3.95974e-05
3 *1253:B1 *1254:A1 1.41029e-05
4 *1255:A *1253:B1 8.00806e-05
5 *1255:B *1253:B1 8.00806e-05
6 *1256:A3 *1253:B1 2.82057e-05
7 *239:73 *1253:B1 0
*RES
1 *1398:X *1253:B1 29.2429 
*END

*D_NET *302 0.000335052
*CONN
*I *1332:D I *D sky130_fd_sc_hd__dfxtp_2
*I *1399:X O *D sky130_fd_sc_hd__dlygate4sd3_1
*CAP
1 *1332:D 9.0145e-05
2 *1399:X 9.0145e-05
3 *1371:A *1332:D 0.000154762
4 *244:85 *1332:D 0
*RES
1 *1399:X *1332:D 29.7116 
*END

*D_NET *303 0.00327303
*CONN
*I *1273:A1 I *D sky130_fd_sc_hd__o311a_2
*I *1440:X O *D sky130_fd_sc_hd__clkdlybuf4s25_1
*CAP
1 *1273:A1 0.000863453
2 *1440:X 0.000863453
3 *1269:A1 *1273:A1 0.000869711
4 *1281:A1 *1273:A1 9.99853e-05
5 *1281:A3 *1273:A1 0
6 *1343:D *1273:A1 5.97401e-05
7 *102:92 *1273:A1 0.000184745
8 *102:100 *1273:A1 0.000331947
*RES
1 *1440:X *1273:A1 46.7607 
*END

*D_NET *304 0.000468364
*CONN
*I *1142:A1 I *D sky130_fd_sc_hd__o21ai_2
*I *1400:X O *D sky130_fd_sc_hd__dlygate4sd3_1
*CAP
1 *1142:A1 0.000138682
2 *1400:X 0.000138682
3 *1142:A1 *348:14 5.52302e-05
4 *1142:B1 *1142:A1 1.00375e-05
5 *1143:B *1142:A1 0.000125731
6 *134:12 *1142:A1 0
*RES
1 *1400:X *1142:A1 30.0821 
*END

*D_NET *305 0.00072213
*CONN
*I *1216:B I *D sky130_fd_sc_hd__nand2b_2
*I *1401:X O *D sky130_fd_sc_hd__dlygate4sd3_1
*CAP
1 *1216:B 0.000174377
2 *1401:X 0.000174377
3 *1216:B *375:39 0.000230526
4 *1216:B *375:45 0.00014285
*RES
1 *1401:X *1216:B 22.8321 
*END

*D_NET *306 0.000749944
*CONN
*I *1319:D I *D sky130_fd_sc_hd__dfxtp_2
*I *1402:X O *D sky130_fd_sc_hd__dlygate4sd3_1
*CAP
1 *1319:D 0.000288659
2 *1402:X 0.000288659
3 *1319:D *1210:C 0.000147784
4 *1212:C *1319:D 2.48421e-05
*RES
1 *1402:X *1319:D 33.1759 
*END

*D_NET *307 0.00378991
*CONN
*I *1113:A I *D sky130_fd_sc_hd__nand2_2
*I *1071:A I *D sky130_fd_sc_hd__inv_2
*I *1403:X O *D sky130_fd_sc_hd__dlygate4sd3_1
*CAP
1 *1113:A 0.000754321
2 *1071:A 0.000151196
3 *1403:X 0.000105543
4 *307:6 0.00101106
5 *1113:A *1100:A 0.000344925
6 *1113:A *1114:C 2.14658e-05
7 *1113:A *340:19 0.000297198
8 *1113:A *340:43 0.000310286
9 *307:6 *340:19 7.32272e-05
10 *1148:B *1113:A 5.52238e-05
11 *1150:C1 *1113:A 4.27437e-05
12 *1292:D *1071:A 3.34295e-05
13 *1292:D *1113:A 1.64343e-05
14 *115:10 *1071:A 0
15 *116:18 *1113:A 0.00034321
16 *122:10 *1113:A 5.33005e-05
17 *142:38 *1113:A 4.13595e-05
18 *243:10 *1071:A 4.25523e-05
19 *243:14 *1071:A 9.24395e-05
*RES
1 *1403:X *307:6 10.6571 
2 *307:6 *1071:A 21.7643 
3 *307:6 *1113:A 32.7821 
*END

*D_NET *308 0.000392809
*CONN
*I *1294:D I *D sky130_fd_sc_hd__dfxtp_2
*I *1404:X O *D sky130_fd_sc_hd__dlygate4sd3_1
*CAP
1 *1294:D 0.000196404
2 *1404:X 0.000196404
3 *1294:D *1152:A1 0
4 *1294:D *1152:A2 0
*RES
1 *1404:X *1294:D 30.9438 
*END

*D_NET *309 0.00011352
*CONN
*I *1262:A1 I *D sky130_fd_sc_hd__o21ba_2
*I *1405:X O *D sky130_fd_sc_hd__dlygate4sd3_1
*CAP
1 *1262:A1 5.41066e-05
2 *1405:X 5.41066e-05
3 *1453:A *1262:A1 5.30637e-06
*RES
1 *1405:X *1262:A1 19.5464 
*END

*D_NET *310 0.00166325
*CONN
*I *1245:A I *D sky130_fd_sc_hd__nand3_2
*I *1243:A1 I *D sky130_fd_sc_hd__o21ba_2
*I *1406:X O *D sky130_fd_sc_hd__dlygate4sd3_1
*CAP
1 *1245:A 0.000130606
2 *1243:A1 3.89851e-05
3 *1406:X 0.000330139
4 *310:12 0.00049973
5 *1243:A2 *1243:A1 9.99853e-05
6 *1243:A2 *1245:A 5.44767e-05
7 *1246:B *310:12 0.000245339
8 *1246:C *1245:A 0.000101859
9 *1328:D *310:12 0
10 *195:20 *310:12 0.000107263
11 *196:18 *310:12 0
12 *213:45 *310:12 5.48674e-05
13 *239:35 *310:12 0
*RES
1 *1406:X *310:12 25.3357 
2 *310:12 *1243:A1 10.2464 
3 *310:12 *1245:A 12.3179 
*END

*D_NET *311 0.00126104
*CONN
*I *1104:B I *D sky130_fd_sc_hd__nand2b_2
*I *1407:X O *D sky130_fd_sc_hd__dlygate4sd3_1
*CAP
1 *1104:B 0.000344344
2 *1407:X 0.000344344
3 *1104:B *1367:A 0
4 *1106:B1 *1104:B 0.000145276
5 *1345:CLK *1104:B 0.000142856
6 *1345:D *1104:B 1.76204e-05
7 *266:12 *1104:B 0.000266601
*RES
1 *1407:X *1104:B 35.3857 
*END

*D_NET *312 0.00139947
*CONN
*I *1278:A I *D sky130_fd_sc_hd__or2_2
*I *1408:X O *D sky130_fd_sc_hd__dlygate4sd3_1
*CAP
1 *1278:A 0.000361547
2 *1408:X 0.000361547
3 *1278:A *1081:A3 1.21258e-05
4 *1278:A *1280:A 7.62707e-05
5 *1272:B *1278:A 3.36355e-06
6 *1279:B1 *1278:A 0.000433508
7 *219:10 *1278:A 3.87349e-05
8 *265:108 *1278:A 5.52302e-05
9 *268:79 *1278:A 5.71472e-05
*RES
1 *1408:X *1278:A 34.9036 
*END

*D_NET *313 0.000549499
*CONN
*I *1276:A I *D sky130_fd_sc_hd__or2_2
*I *1409:X O *D sky130_fd_sc_hd__dlygate4sd3_1
*CAP
1 *1276:A 0.00015032
2 *1409:X 0.00015032
3 *1267:A2 *1276:A 9.5819e-05
4 *219:12 *1276:A 0.00015304
5 *268:83 *1276:A 0
*RES
1 *1409:X *1276:A 30.4929 
*END

*D_NET *314 0.00155658
*CONN
*I *1275:A1 I *D sky130_fd_sc_hd__o311a_2
*I *1441:X O *D sky130_fd_sc_hd__clkdlybuf4s25_1
*CAP
1 *1275:A1 0.000330669
2 *1441:X 0.000330669
3 *1340:D *1275:A1 0.000101545
4 *1435:A *1275:A1 9.40388e-05
5 *1441:A *1275:A1 0.000183726
6 *102:10 *1275:A1 1.02504e-05
7 *102:29 *1275:A1 0.000274294
8 *250:10 *1275:A1 0.000223589
9 *265:54 *1275:A1 7.79781e-06
*RES
1 *1441:X *1275:A1 36.6179 
*END

*D_NET *315 0.000633681
*CONN
*I *1274:A I *D sky130_fd_sc_hd__or2_2
*I *1410:X O *D sky130_fd_sc_hd__dlygate4sd3_1
*CAP
1 *1274:A 0.00013747
2 *1410:X 0.00013747
3 *1274:A *1410:A 1.07719e-05
4 *1274:B *1274:A 5.71472e-05
5 *1275:C1 *1274:A 0.00014285
6 *1341:CLK *1274:A 4.88637e-05
7 *1341:D *1274:A 9.91086e-05
8 *102:25 *1274:A 0
*RES
1 *1410:X *1274:A 30.8321 
*END

*D_NET *316 0.000442385
*CONN
*I *1280:A I *D sky130_fd_sc_hd__or2_2
*I *1411:X O *D sky130_fd_sc_hd__dlygate4sd3_1
*CAP
1 *1280:A 9.7693e-05
2 *1411:X 9.7693e-05
3 *1280:A *1081:A3 1.88868e-05
4 *1272:B *1280:A 0.000151841
5 *1278:A *1280:A 7.62707e-05
*RES
1 *1411:X *1280:A 30.0821 
*END

*D_NET *317 0.000999209
*CONN
*I *1272:A I *D sky130_fd_sc_hd__or2_2
*I *1412:X O *D sky130_fd_sc_hd__dlygate4sd3_1
*CAP
1 *1272:A 0.000307817
2 *1412:X 0.000307817
3 *1281:A1 *1272:A 0.000192365
4 *1434:A *1272:A 0.000149549
5 *1439:A *1272:A 3.1367e-05
6 *1440:A *1272:A 1.02936e-05
*RES
1 *1412:X *1272:A 33.7786 
*END

*D_NET *318 0.000907415
*CONN
*I *1070:A I *D sky130_fd_sc_hd__inv_2
*I *1247:B1 I *D sky130_fd_sc_hd__a31o_2
*I *1413:X O *D sky130_fd_sc_hd__dlygate4sd3_1
*CAP
1 *1070:A 0
2 *1247:B1 0.000264052
3 *1413:X 0.000147225
4 *318:10 0.000411277
5 *1247:B1 *1413:A 0
6 *1247:B1 *372:14 6.05161e-06
7 *1247:B1 *374:8 7.88091e-05
8 *318:10 *1413:A 0
9 *318:10 *372:14 0
*RES
1 *1413:X *318:10 15.9786 
2 *318:10 *1247:B1 18.8357 
3 *318:10 *1070:A 13.8 
*END

*D_NET *319 0.000355482
*CONN
*I *1330:D I *D sky130_fd_sc_hd__dfxtp_2
*I *1414:X O *D sky130_fd_sc_hd__dlygate4sd3_1
*CAP
1 *1330:D 0.000149123
2 *1414:X 0.000149123
3 *1330:D *1413:A 5.72359e-05
*RES
1 *1414:X *1330:D 30.2473 
*END

*D_NET *320 0.00113851
*CONN
*I *1266:A I *D sky130_fd_sc_hd__or2_2
*I *1415:X O *D sky130_fd_sc_hd__dlygate4sd3_1
*CAP
1 *1266:A 0.000227916
2 *1415:X 0.000227916
3 *1266:A *1270:A 0.000102197
4 *1158:A *1266:A 2.51343e-06
5 *1267:B1 *1266:A 9.32756e-05
6 *1316:CLK *1266:A 0.000144773
7 *1445:A *1266:A 0.000339917
8 *3:30 *1266:A 0
*RES
1 *1415:X *1266:A 34.2786 
*END

*D_NET *321 0.00192283
*CONN
*I *1268:A I *D sky130_fd_sc_hd__or2_2
*I *1416:X O *D sky130_fd_sc_hd__dlygate4sd3_1
*CAP
1 *1268:A 0.000355681
2 *1416:X 0.000355681
3 *1267:A1 *1268:A 0
4 *1267:A3 *1268:A 4.02462e-05
5 *1269:A3 *1268:A 0.000244395
6 *1269:B1 *1268:A 0.000147474
7 *219:67 *1268:A 0
8 *245:14 *1268:A 0.000199292
9 *245:38 *1268:A 0.000126439
10 *245:55 *1268:A 0.000453621
*RES
1 *1416:X *1268:A 38.2786 
*END

*D_NET *322 0.00244722
*CONN
*I *1270:A I *D sky130_fd_sc_hd__or2_2
*I *1417:X O *D sky130_fd_sc_hd__dlygate4sd3_1
*CAP
1 *1270:A 0.000743892
2 *1417:X 0.000743892
3 *1270:A *1081:A0 5.47488e-05
4 *1266:A *1270:A 0.000102197
5 *1266:B *1270:A 1.32552e-05
6 *1271:B1 *1270:A 0.000178847
7 *1316:CLK *1270:A 1.68597e-05
8 *1316:D *1270:A 9.82585e-06
9 *1383:A *1270:A 0
10 *1445:A *1270:A 0.000459691
11 *268:46 *1270:A 0.00012401
*RES
1 *1417:X *1270:A 40.2071 
*END

*D_NET *323 0.000243624
*CONN
*I *1111:B2 I *D sky130_fd_sc_hd__a221o_2
*I *1418:X O *D sky130_fd_sc_hd__dlygate4sd3_1
*CAP
1 *1111:B2 3.84502e-05
2 *1418:X 3.84502e-05
3 *1111:A2 *1111:B2 0
4 *1111:B1 *1111:B2 0.000104049
5 *300:42 *1111:B2 6.26743e-05
*RES
1 *1418:X *1111:B2 20.1045 
*END

*D_NET *324 0.000323583
*CONN
*I *1252:A1 I *D sky130_fd_sc_hd__a211oi_2
*I *1419:X O *D sky130_fd_sc_hd__dlygate4sd3_1
*CAP
1 *1252:A1 0.000158766
2 *1419:X 0.000158766
3 *1331:D *1252:A1 6.05161e-06
*RES
1 *1419:X *1252:A1 21.1893 
*END

*D_NET *325 0.00115691
*CONN
*I *1277:A1 I *D sky130_fd_sc_hd__o311a_2
*I *1442:X O *D sky130_fd_sc_hd__clkdlybuf4s25_1
*CAP
1 *1277:A1 0.000393874
2 *1442:X 0.000393874
3 tx_busy *1277:A1 1.40415e-05
4 *1249:A *1277:A1 0.00015134
5 *1279:A2 *1277:A1 0
6 *1454:A *1277:A1 9.3322e-05
7 *102:29 *1277:A1 5.52238e-05
8 *102:44 *1277:A1 5.52302e-05
*RES
1 *1442:X *1277:A1 34.725 
*END

*D_NET *326 0.00109347
*CONN
*I *1150:A1 I *D sky130_fd_sc_hd__o311a_2
*I *1420:X O *D sky130_fd_sc_hd__dlygate4sd3_1
*CAP
1 *1150:A1 0.000311912
2 *1420:X 0.000311912
3 *1150:A1 *1123:A 0.00012416
4 *1150:A1 *1146:A3 1.27784e-05
5 *1150:A1 *1150:A2 0
6 *1150:A1 *369:27 1.00375e-05
7 *1124:B1 *1150:A1 0
8 *1153:C *1150:A1 0.000123288
9 *1153:D *1150:A1 2.37761e-05
10 *1295:D *1150:A1 6.97972e-05
11 *115:35 *1150:A1 0.000101802
12 *141:12 *1150:A1 0
13 *271:19 *1150:A1 9.33978e-07
14 *271:34 *1150:A1 3.06878e-06
*RES
1 *1420:X *1150:A1 34.6357 
*END

*D_NET *327 0.000276157
*CONN
*I *1224:A I *D sky130_fd_sc_hd__nand2_2
*I *1421:X O *D sky130_fd_sc_hd__dlygate4sd3_1
*CAP
1 *1224:A 0.000107046
2 *1421:X 0.000107046
3 *1224:B *1224:A 6.20656e-05
*RES
1 *1421:X *1224:A 20.7964 
*END

*D_NET *328 0.00152297
*CONN
*I *1113:B I *D sky130_fd_sc_hd__nand2_2
*I *1422:X O *D sky130_fd_sc_hd__dlygate4sd3_1
*CAP
1 *1113:B 0.00046038
2 *1422:X 0.00046038
3 *1113:B *1422:A 0
4 *1148:A *1113:B 9.71197e-05
5 *1148:B *1113:B 0.000137983
6 *1150:C1 *1113:B 1.98839e-05
7 *1293:CLK *1113:B 0.000146474
8 *1293:D *1113:B 2.6949e-05
9 *116:29 *1113:B 0
10 *243:71 *1113:B 0.000173804
*RES
1 *1422:X *1113:B 36.4036 
*END

*D_NET *329 0.000277626
*CONN
*I *1234:A I *D sky130_fd_sc_hd__nand2_2
*I *1423:X O *D sky130_fd_sc_hd__dlygate4sd3_1
*CAP
1 *1234:A 5.67684e-05
2 *1423:X 5.67684e-05
3 *1235:C *1234:A 0
4 *208:12 *1234:A 7.77652e-05
5 *208:54 *1234:A 5.33005e-05
6 *263:23 *1234:A 3.30237e-05
*RES
1 *1423:X *1234:A 20.3857 
*END

*D_NET *330 0.000287411
*CONN
*I *1067:A I *D sky130_fd_sc_hd__inv_2
*I *1424:X O *D sky130_fd_sc_hd__dlygate4sd3_1
*CAP
1 *1067:A 0.000100274
2 *1424:X 0.000100274
3 *1067:A *1084:A 5.58941e-05
4 *1261:B1 *1067:A 4.46186e-06
5 *1265:A2 *1067:A 0
6 *273:10 *1067:A 2.65075e-05
*RES
1 *1424:X *1067:A 29.5464 
*END

*D_NET *331 0.00032144
*CONN
*I *1222:B1 I *D sky130_fd_sc_hd__a31o_2
*I *1425:X O *D sky130_fd_sc_hd__dlygate4sd3_1
*CAP
1 *1222:B1 1.5947e-05
2 *1425:X 1.5947e-05
3 *1222:B1 *1209:D_N 0.000144773
4 *1222:B1 *376:31 0.000144773
*RES
1 *1425:X *1222:B1 19.9571 
*END

*D_NET *332 0.00126068
*CONN
*I *1228:B1 I *D sky130_fd_sc_hd__a21o_2
*I *1426:X O *D sky130_fd_sc_hd__dlygate4sd3_1
*CAP
1 *1228:B1 0.00033302
2 *1426:X 0.00033302
3 *1228:B1 *1228:A1 9.74665e-05
4 *1228:B1 *378:65 2.84026e-05
5 *1228:B1 *379:14 3.92757e-05
6 *1223:B *1228:B1 0
7 *201:12 *1228:B1 0
8 *201:14 *1228:B1 0.000143652
9 *201:28 *1228:B1 1.64621e-05
10 *263:61 *1228:B1 0.000269379
*RES
1 *1426:X *1228:B1 35.1 
*END

*D_NET *333 0.00031906
*CONN
*I *1218:C I *D sky130_fd_sc_hd__nand3_2
*I *1427:X O *D sky130_fd_sc_hd__dlygate4sd3_1
*CAP
1 *1218:C 0.00015953
2 *1427:X 0.00015953
3 *1428:A *1218:C 0
4 *242:61 *1218:C 0
*RES
1 *1427:X *1218:C 30.1893 
*END

*D_NET *334 0.00140766
*CONN
*I *1220:B I *D sky130_fd_sc_hd__and3_2
*I *1428:X O *D sky130_fd_sc_hd__dlygate4sd3_1
*CAP
1 *1220:B 0.000370885
2 *1428:X 0.000370885
3 *1220:B *1215:A_N 0.000183726
4 *1220:B *1429:A 0
5 *1220:C *1220:B 0.000482163
*RES
1 *1428:X *1220:B 35.9929 
*END

*D_NET *335 0.000773299
*CONN
*I *1215:A_N I *D sky130_fd_sc_hd__and2b_2
*I *1429:X O *D sky130_fd_sc_hd__dlygate4sd3_1
*CAP
1 *1215:A_N 0.000215303
2 *1429:X 0.000215303
3 *1215:B *1215:A_N 0
4 *1220:B *1215:A_N 0.000183726
5 *1220:C *1215:A_N 9.2437e-05
6 *1320:D *1215:A_N 6.65302e-05
*RES
1 *1429:X *1215:A_N 32.4393 
*END

*D_NET *336 0.000897071
*CONN
*I *1279:A1 I *D sky130_fd_sc_hd__o311a_2
*I *1443:X O *D sky130_fd_sc_hd__clkdlybuf4s25_1
*CAP
1 *1279:A1 0.000263753
2 *1443:X 0.000263753
3 tx_busy *1279:A1 0
4 *1342:CLK *1279:A1 0.000145653
5 *1342:D *1279:A1 5.33882e-05
6 *102:92 *1279:A1 0.000170523
*RES
1 *1443:X *1279:A1 33.4393 
*END

*D_NET *337 0.00096194
*CONN
*I *1099:A1 I *D sky130_fd_sc_hd__a31o_2
*I *1430:X O *D sky130_fd_sc_hd__dlygate4sd3_1
*CAP
1 *1099:A1 0.00023837
2 *1430:X 0.00023837
3 *1099:A1 *1430:A 5.52238e-05
4 *1099:A3 *1099:A1 0.000187726
5 *1108:B *1099:A1 0.000153047
6 *1203:C1 *1099:A1 0
7 *1347:D *1099:A1 0
8 *1370:A *1099:A1 0
9 *246:56 *1099:A1 7.83659e-05
10 *266:102 *1099:A1 1.08359e-05
*RES
1 *1430:X *1099:A1 33.1179 
*END

*D_NET *338 0.000878704
*CONN
*I *1236:B1 I *D sky130_fd_sc_hd__a21o_2
*I *1431:X O *D sky130_fd_sc_hd__dlygate4sd3_1
*CAP
1 *1236:B1 0.000311341
2 *1431:X 0.000311341
3 *1238:C *1236:B1 0.000100248
4 *1239:D *1236:B1 3.69047e-06
5 *263:12 *1236:B1 0.000125542
6 *263:113 *1236:B1 2.6541e-05
*RES
1 *1431:X *1236:B1 32.2429 
*END

*D_NET *339 0.0016855
*CONN
*I *1122:A I *D sky130_fd_sc_hd__nand2_2
*I *1432:X O *D sky130_fd_sc_hd__dlygate4sd3_1
*CAP
1 *1122:A 0.000507734
2 *1432:X 0.000507734
3 *1122:A *343:23 5.66971e-05
4 *1122:B *1122:A 0.00014285
5 *1129:A *1122:A 7.17235e-05
6 *1129:B *1122:A 1.98839e-05
7 *1129:C *1122:A 0
8 *1283:D *1122:A 0.000173418
9 *124:30 *1122:A 1.87955e-05
10 *243:40 *1122:A 0
11 *264:22 *1122:A 0.000186662
*RES
1 *1432:X *1122:A 38.1 
*END

*D_NET *340 0.00450737
*CONN
*I *1114:A I *D sky130_fd_sc_hd__and3_2
*I *1100:A I *D sky130_fd_sc_hd__or2_2
*I *1091:D I *D sky130_fd_sc_hd__and4bb_2
*I *1115:A I *D sky130_fd_sc_hd__and4_2
*I *1403:A I *D sky130_fd_sc_hd__dlygate4sd3_1
*I *1294:Q O *D sky130_fd_sc_hd__dfxtp_2
*CAP
1 *1114:A 0
2 *1100:A 9.88714e-05
3 *1091:D 0
4 *1115:A 0.000182224
5 *1403:A 0
6 *1294:Q 4.0439e-05
7 *340:43 0.000174794
8 *340:23 0.000350041
9 *340:19 0.000698626
10 *340:10 0.000495324
11 *1100:A *344:16 0.000367389
12 *1115:A *1115:B 0.000243797
13 *1115:A *1115:C 0.000125588
14 *340:19 *345:6 6.05161e-06
15 *340:19 *345:32 0
16 *340:23 *1115:C 1.00887e-05
17 *340:23 *1146:A3 0
18 *340:23 *345:10 0.000165154
19 *340:43 *1114:C 0.000138881
20 *340:43 *345:6 1.21258e-05
21 *340:43 *345:32 4.88546e-05
22 *1113:A *1100:A 0.000344925
23 *1113:A *340:19 0.000297198
24 *1113:A *340:43 0.000310286
25 *1292:D *340:19 1.76204e-05
26 *116:18 *1100:A 1.08359e-05
27 *117:16 *340:10 0.000129868
28 *124:18 *340:19 9.7659e-05
29 *239:124 *340:10 6.75007e-05
30 *307:6 *340:19 7.32272e-05
*RES
1 *1294:Q *340:10 19.9429 
2 *340:10 *1403:A 9.3 
3 *340:10 *340:19 10 
4 *340:19 *340:23 7.66071 
5 *340:23 *1115:A 17.7107 
6 *340:23 *1091:D 13.8 
7 *340:19 *340:43 3 
8 *340:43 *1100:A 22.9786 
9 *340:43 *1114:A 9.3 
*END

*D_NET *341 0.0017935
*CONN
*I *1087:B I *D sky130_fd_sc_hd__nor3_2
*I *1088:B I *D sky130_fd_sc_hd__or3_2
*I *1396:A I *D sky130_fd_sc_hd__dlygate4sd3_1
*I *1121:C I *D sky130_fd_sc_hd__and4_2
*I *1284:Q O *D sky130_fd_sc_hd__dfxtp_2
*CAP
1 *1087:B 0.00011152
2 *1088:B 5.02207e-05
3 *1396:A 9.31606e-05
4 *1121:C 0.000118716
5 *1284:Q 0.000344937
6 *341:39 0.000304567
7 *341:26 0.000462209
8 *1121:C *351:43 8.86669e-05
9 *1121:C *352:38 0
10 *1121:D *1121:C 5.52302e-05
11 *1130:A1 *1121:C 8.53412e-05
12 *1130:A2 *1121:C 0
13 *1131:B *1121:C 0
14 *139:12 *1121:C 7.89362e-05
15 *264:39 *1121:C 0
*RES
1 *1284:Q *1121:C 30.7964 
2 *1284:Q *341:26 16.3893 
3 *341:26 *1396:A 15.4786 
4 *341:26 *341:39 2.55357 
5 *341:39 *1088:B 14.3357 
6 *341:39 *1087:B 15.7464 
*END

*D_NET *342 0.00406366
*CONN
*I *1087:A I *D sky130_fd_sc_hd__nor3_2
*I *1432:A I *D sky130_fd_sc_hd__dlygate4sd3_1
*I *1088:A I *D sky130_fd_sc_hd__or3_2
*I *1126:A1 I *D sky130_fd_sc_hd__a31o_2
*I *1128:A I *D sky130_fd_sc_hd__or2_2
*I *1283:Q O *D sky130_fd_sc_hd__dfxtp_2
*CAP
1 *1087:A 1.77873e-05
2 *1432:A 0.00021605
3 *1088:A 0.000269553
4 *1126:A1 3.26969e-05
5 *1128:A 4.54114e-05
6 *1283:Q 0.000496969
7 *342:21 0.000351152
8 *342:19 0.000339897
9 *342:8 0.000635113
10 *1087:A *1087:C 5.66971e-05
11 *1088:A *1088:C 9.84729e-05
12 *1432:A *343:23 0.000213508
13 *1122:B *342:19 2.53112e-06
14 *1283:D *342:8 1.74816e-05
15 *1330:CLK *1128:A 5.23735e-05
16 *1330:CLK *342:8 8.43535e-06
17 *1381:A *342:21 0.00015078
18 *139:12 *1088:A 5.49995e-05
19 *139:16 *1088:A 0.000156453
20 *139:22 *1126:A1 1.95368e-05
21 *139:22 *342:19 5.20919e-05
22 *139:22 *342:21 4.40513e-06
23 *243:20 *342:8 0.000166951
24 *243:24 *342:8 0.000181936
25 *264:33 *342:19 0.000136303
26 *264:39 *1126:A1 7.95286e-05
27 *264:39 *342:19 3.29297e-05
28 *264:39 *342:21 0.000173614
*RES
1 *1283:Q *342:8 16.425 
2 *342:8 *1128:A 10.2464 
3 *342:8 *342:19 6.75 
4 *342:19 *342:21 2.25 
5 *342:21 *1126:A1 14.8357 
6 *342:21 *1088:A 19.2643 
7 *342:19 *1432:A 18.0321 
8 *1432:A *1087:A 19.1357 
*END

*D_NET *343 0.00381309
*CONN
*I *1087:C I *D sky130_fd_sc_hd__nor3_2
*I *1088:C I *D sky130_fd_sc_hd__or3_2
*I *1380:A I *D sky130_fd_sc_hd__dlygate4sd3_1
*I *1282:Q O *D sky130_fd_sc_hd__dfxtp_2
*CAP
1 *1087:C 0.000207096
2 *1088:C 0.000221442
3 *1380:A 0.00010264
4 *1282:Q 0.000218724
5 *343:23 0.00127502
6 *343:6 0.00116785
7 *1087:A *1087:C 5.66971e-05
8 *1088:A *1088:C 9.84729e-05
9 *1122:A *343:23 5.66971e-05
10 *1212:C *343:6 1.29901e-05
11 *1282:CLK *343:23 1.21258e-05
12 *1282:D *343:23 0.000165555
13 *1432:A *343:23 0.000213508
14 *139:12 *1088:C 4.27842e-06
*RES
1 *1282:Q *343:6 11.8893 
2 *343:6 *1380:A 19.9429 
3 *343:6 *343:23 11.7679 
4 *343:23 *1088:C 22.4071 
5 *343:23 *1087:C 12.7286 
*END

*D_NET *344 0.0072583
*CONN
*I *1422:A I *D sky130_fd_sc_hd__dlygate4sd3_1
*I *1100:B I *D sky130_fd_sc_hd__or2_2
*I *1114:B I *D sky130_fd_sc_hd__and3_2
*I *1091:A_N I *D sky130_fd_sc_hd__and4bb_2
*I *1115:B I *D sky130_fd_sc_hd__and4_2
*I *1293:Q O *D sky130_fd_sc_hd__dfxtp_2
*CAP
1 *1422:A 0.000103239
2 *1100:B 2.25053e-05
3 *1114:B 0.000110967
4 *1091:A_N 0.000340705
5 *1115:B 0.000212603
6 *1293:Q 7.91904e-05
7 *344:18 0.00062408
8 *344:16 0.000324885
9 *344:14 0.000924218
10 *344:6 0.000940996
11 *1091:A_N *1091:C 0.000308001
12 *1115:B *1115:C 8.10737e-06
13 *1115:B *1115:D 3.24049e-05
14 *1115:B *1146:A3 0.000199731
15 *344:14 *1146:A3 0.000184583
16 *344:14 *1150:A2 0
17 *344:14 *368:69 0
18 *344:16 *1146:A3 0.00047432
19 *344:18 *1146:A3 0.000187988
20 *1100:A *344:16 0.000367389
21 *1102:D *1115:B 0.000166973
22 *1102:D *344:18 9.15842e-06
23 *1113:B *1422:A 0
24 *1115:A *1115:B 0.000243797
25 *1145:A *1115:B 1.52217e-05
26 *1150:C1 *1100:B 1.58163e-05
27 *1293:CLK *344:14 1.33125e-05
28 *1293:D *344:14 8.95186e-05
29 *1452:A *1422:A 0
30 *97:6 *1114:B 7.02611e-05
31 *114:10 *1091:A_N 5.4959e-05
32 *116:10 *1115:B 0.000505229
33 *116:18 *344:14 5.03694e-05
34 *116:18 *344:16 5.40677e-05
35 *116:18 *344:18 9.52639e-05
36 *116:29 *344:14 8.77022e-05
37 *133:6 *1115:B 2.85234e-05
38 *133:10 *1115:B 1.12669e-05
39 *142:12 *344:14 0
40 *142:38 *1100:B 5.33005e-05
41 *178:10 *344:14 5.80706e-06
42 *243:65 *1091:A_N 0.000241839
*RES
1 *1293:Q *344:6 10.2464 
2 *344:6 *344:14 18.25 
3 *344:14 *344:16 6.19643 
4 *344:16 *344:18 2.55357 
5 *344:18 *1115:B 22.3714 
6 *344:18 *1091:A_N 20.1214 
7 *344:16 *1114:B 15.1571 
8 *344:14 *1100:B 14.3357 
9 *344:6 *1422:A 19.9429 
*END

*D_NET *345 0.00165074
*CONN
*I *1114:C I *D sky130_fd_sc_hd__and3_2
*I *1072:A I *D sky130_fd_sc_hd__inv_2
*I *1091:B_N I *D sky130_fd_sc_hd__and4bb_2
*I *1115:C I *D sky130_fd_sc_hd__and4_2
*I *1292:Q O *D sky130_fd_sc_hd__dfxtp_2
*CAP
1 *1114:C 9.80379e-05
2 *1072:A 0
3 *1091:B_N 0
4 *1115:C 0.000123018
5 *1292:Q 3.84812e-05
6 *345:32 0.000202499
7 *345:10 0.000213974
8 *345:6 0.000233898
9 *1115:C *1115:D 1.32293e-05
10 *345:10 *1146:A3 0
11 *1113:A *1114:C 2.14658e-05
12 *1115:A *1115:C 0.000125588
13 *1115:B *1115:C 8.10737e-06
14 *1148:A *1114:C 1.24368e-05
15 *97:6 *1114:C 0.000178847
16 *340:19 *345:6 6.05161e-06
17 *340:19 *345:32 0
18 *340:23 *1115:C 1.00887e-05
19 *340:23 *345:10 0.000165154
20 *340:43 *1114:C 0.000138881
21 *340:43 *345:6 1.21258e-05
22 *340:43 *345:32 4.88546e-05
*RES
1 *1292:Q *345:6 9.83571 
2 *345:6 *345:10 6.75 
3 *345:10 *1115:C 15.9786 
4 *345:10 *1091:B_N 13.8 
5 *345:6 *345:32 2.08929 
6 *345:32 *1072:A 9.3 
7 *345:32 *1114:C 11.9071 
*END

*D_NET *346 0.00453692
*CONN
*I *1144:A I *D sky130_fd_sc_hd__nor2_2
*I *1101:B I *D sky130_fd_sc_hd__or3_2
*I *1146:A2 I *D sky130_fd_sc_hd__a32o_2
*I *1115:D I *D sky130_fd_sc_hd__and4_2
*I *1091:C I *D sky130_fd_sc_hd__and4bb_2
*I *1291:Q O *D sky130_fd_sc_hd__dfxtp_2
*CAP
1 *1144:A 0
2 *1101:B 6.69297e-05
3 *1146:A2 3.46421e-05
4 *1115:D 0.000221459
5 *1091:C 0.000246447
6 *1291:Q 0.000484153
7 *346:25 0.000328811
8 *346:21 0.000153343
9 *346:17 3.50151e-05
10 *346:8 0.000751911
11 *1146:A2 *1146:A3 4.77002e-05
12 *1091:A_N *1091:C 0.000308001
13 *1101:C *1101:B 3.88682e-05
14 *1101:C *346:25 5.54817e-06
15 *1115:B *1115:D 3.24049e-05
16 *1115:C *1115:D 1.32293e-05
17 *1145:A *1101:B 7.89309e-05
18 *1145:A *1115:D 0.000348863
19 *1145:A *1146:A2 4.17702e-05
20 *1145:A *346:25 0.000144732
21 *1145:B *346:8 5.49995e-05
22 *1146:A1 *1115:D 0.000141935
23 *1146:A1 *1146:A2 0.000182804
24 *1146:A1 *346:25 3.42608e-05
25 *1146:B1 *1146:A2 1.53661e-05
26 *1291:CLK *346:8 4.37451e-05
27 *1291:D *346:8 0.000188756
28 *133:6 *1115:D 5.49995e-05
29 *243:65 *1091:C 0.000284909
30 *243:65 *1101:B 2.89016e-05
31 *243:65 *346:8 7.01807e-05
32 *243:65 *346:21 5.33005e-05
*RES
1 *1291:Q *346:8 18.0679 
2 *346:8 *1091:C 15.175 
3 *346:8 *346:17 0.428571 
4 *346:17 *346:21 5.03571 
5 *346:21 *346:25 6.44643 
6 *346:25 *1115:D 14.3714 
7 *346:25 *1146:A2 11.0679 
8 *346:21 *1101:B 15.3714 
9 *346:17 *1144:A 9.3 
*END

*D_NET *347 0.00245503
*CONN
*I *1400:A I *D sky130_fd_sc_hd__dlygate4sd3_1
*I *1089:B I *D sky130_fd_sc_hd__nor4_2
*I *1116:A I *D sky130_fd_sc_hd__and2_2
*I *1090:B I *D sky130_fd_sc_hd__or4_2
*I *1117:B I *D sky130_fd_sc_hd__and2_2
*I *1290:Q O *D sky130_fd_sc_hd__dfxtp_2
*CAP
1 *1400:A 8.44027e-05
2 *1089:B 0
3 *1116:A 0.000287584
4 *1090:B 0
5 *1117:B 0
6 *1290:Q 0.000121959
7 *347:29 0.000408293
8 *347:23 0.000262125
9 *347:12 0.000159677
10 *347:10 0.000224623
11 *1116:A *1090:A 2.28598e-05
12 *1116:A *1090:C 1.24368e-05
13 *1116:A *1090:D 3.67142e-05
14 *1400:A *348:14 0.000216121
15 *347:12 *348:14 5.71472e-05
16 *347:23 *1089:D 1.98839e-05
17 *347:23 *1090:A 9.90431e-05
18 *347:23 *348:14 2.74192e-05
19 *347:23 *348:16 0.00010096
20 *347:29 *1089:C 0.000106552
21 *347:29 *1090:A 0.000175526
22 *347:29 *349:47 0
23 *347:29 *350:37 3.17067e-05
24 *113:8 *347:10 0
25 *133:10 *347:10 0
*RES
1 *1290:Q *347:10 20.2464 
2 *347:10 *347:12 0.535714 
3 *347:12 *1117:B 9.3 
4 *347:12 *347:23 3.44643 
5 *347:23 *347:29 12.1607 
6 *347:29 *1090:B 9.3 
7 *347:29 *1116:A 13.9786 
8 *347:23 *1089:B 9.3 
9 *347:10 *1400:A 11.4786 
*END

*D_NET *348 0.00386371
*CONN
*I *1374:A I *D sky130_fd_sc_hd__dlygate4sd3_1
*I *1117:A I *D sky130_fd_sc_hd__and2_2
*I *1089:A I *D sky130_fd_sc_hd__nor4_2
*I *1090:A I *D sky130_fd_sc_hd__or4_2
*I *1289:Q O *D sky130_fd_sc_hd__dfxtp_2
*CAP
1 *1374:A 0.000103307
2 *1117:A 0
3 *1089:A 0
4 *1090:A 0.000133951
5 *1289:Q 7.74294e-05
6 *348:16 0.000154933
7 *348:14 0.00105925
8 *348:6 0.001219
9 *1090:A *1089:D 0.000140654
10 *1090:A *1090:C 5.52238e-05
11 *1090:A *349:47 1.19402e-05
12 *348:16 *1089:D 4.18895e-05
13 *1116:A *1090:A 2.28598e-05
14 *1141:B1 *1374:A 0
15 *1142:A1 *348:14 5.52302e-05
16 *1289:CLK *348:14 5.23142e-05
17 *1289:D *348:14 5.95099e-05
18 *1400:A *348:14 0.000216121
19 *347:12 *348:14 5.71472e-05
20 *347:23 *1090:A 9.90431e-05
21 *347:23 *348:14 2.74192e-05
22 *347:23 *348:16 0.00010096
23 *347:29 *1090:A 0.000175526
*RES
1 *1289:Q *348:6 10.2464 
2 *348:6 *348:14 14.6607 
3 *348:14 *348:16 0.946429 
4 *348:16 *1090:A 22.4429 
5 *348:16 *1089:A 9.3 
6 *348:14 *1117:A 9.3 
7 *348:6 *1374:A 19.9429 
*END

*D_NET *349 0.00501137
*CONN
*I *1138:B1 I *D sky130_fd_sc_hd__a21o_2
*I *1118:A I *D sky130_fd_sc_hd__and3_2
*I *1089:D I *D sky130_fd_sc_hd__nor4_2
*I *1090:D I *D sky130_fd_sc_hd__or4_2
*I *1119:B I *D sky130_fd_sc_hd__and4_2
*I *1288:Q O *D sky130_fd_sc_hd__dfxtp_2
*CAP
1 *1138:B1 0
2 *1118:A 0
3 *1089:D 0.000326427
4 *1090:D 5.23784e-05
5 *1119:B 0.000396911
6 *1288:Q 0.000588403
7 *349:47 0.000559246
8 *349:26 0.000754459
9 *349:16 0.000374443
10 *349:12 0.000785738
11 *1119:B *350:37 0
12 *349:47 *350:37 0
13 *1090:A *1089:D 0.000140654
14 *1090:A *349:47 1.19402e-05
15 *1116:A *1090:D 3.67142e-05
16 *1119:C *1119:B 9.2144e-05
17 *1119:C *349:47 3.88892e-05
18 *1119:D *1119:B 3.67257e-05
19 *1136:A1 *1119:B 0.000125731
20 *1136:A2 *1119:B 0
21 *1136:B1 *1119:B 0
22 *1138:A1 *349:16 2.86259e-05
23 *1138:A2 *349:16 0.000230475
24 *1138:A2 *349:26 6.20968e-05
25 *1139:B *349:12 4.25716e-05
26 *1139:C *349:12 0.000101545
27 *1288:D *349:12 7.99677e-06
28 *133:10 *1089:D 0
29 *135:8 *1089:D 0
30 *135:8 *349:47 0
31 *136:10 *1119:B 0
32 *136:10 *349:26 9.90431e-05
33 *264:96 *349:26 5.64433e-05
34 *347:23 *1089:D 1.98839e-05
35 *347:29 *349:47 0
36 *348:16 *1089:D 4.18895e-05
*RES
1 *1288:Q *349:12 25.8179 
2 *349:12 *349:16 3.83929 
3 *349:16 *349:26 8.07143 
4 *349:26 *1119:B 21.6571 
5 *349:26 *349:47 3.46429 
6 *349:47 *1090:D 14.7464 
7 *349:47 *1089:D 19.2821 
8 *349:16 *1118:A 9.3 
9 *349:12 *1138:B1 9.3 
*END

*D_NET *350 0.00237176
*CONN
*I *1089:C I *D sky130_fd_sc_hd__nor4_2
*I *1090:C I *D sky130_fd_sc_hd__or4_2
*I *1395:A I *D sky130_fd_sc_hd__dlygate4sd3_1
*I *1119:A I *D sky130_fd_sc_hd__and4_2
*I *1287:Q O *D sky130_fd_sc_hd__dfxtp_2
*CAP
1 *1089:C 7.74616e-05
2 *1090:C 5.05669e-05
3 *1395:A 4.74881e-05
4 *1119:A 8.50425e-05
5 *1287:Q 0.000548479
6 *350:37 0.000499849
7 *350:6 0.000309189
8 *1089:C *351:21 0
9 *1090:A *1090:C 5.52238e-05
10 *1116:A *1090:C 1.24368e-05
11 *1119:B *350:37 0
12 *1119:D *1119:A 6.51946e-05
13 *1136:B1 *350:37 0
14 *1139:B *1119:A 0
15 *1139:C *1119:A 0
16 *1288:CLK *1395:A 2.89114e-05
17 *1288:CLK *350:6 0.000161868
18 *1288:CLK *350:37 0.000125057
19 *113:8 *1089:C 0.000127446
20 *136:10 *350:37 3.92854e-05
21 *264:69 *1089:C 0
22 *264:69 *350:37 0
23 *347:29 *1089:C 0.000106552
24 *347:29 *350:37 3.17067e-05
25 *349:47 *350:37 0
*RES
1 *1287:Q *350:6 12.3 
2 *350:6 *1119:A 19.9429 
3 *350:6 *1395:A 10.2643 
4 *1287:Q *350:37 20.05 
5 *350:37 *1090:C 14.7464 
6 *350:37 *1089:C 16.3536 
*END

*D_NET *351 0.00310679
*CONN
*I *1086:B I *D sky130_fd_sc_hd__or2_2
*I *1085:B I *D sky130_fd_sc_hd__nor2_2
*I *1121:B I *D sky130_fd_sc_hd__and4_2
*I *1120:B I *D sky130_fd_sc_hd__and3_2
*I *1132:A1 I *D sky130_fd_sc_hd__a21o_2
*I *1384:A I *D sky130_fd_sc_hd__dlygate4sd3_1
*I *1286:Q O *D sky130_fd_sc_hd__dfxtp_2
*CAP
1 *1086:B 0
2 *1085:B 0
3 *1121:B 0
4 *1120:B 0
5 *1132:A1 5.29031e-05
6 *1384:A 4.05636e-05
7 *1286:Q 9.78013e-05
8 *351:43 0.000262337
9 *351:33 0.000422544
10 *351:25 0.000318146
11 *351:21 0.000239134
12 *351:8 0.000272462
13 *1132:A1 *352:10 5.80706e-06
14 *1132:A1 *352:25 7.8327e-05
15 *351:25 *1086:A 5.52238e-05
16 *351:25 *352:47 5.09955e-05
17 *351:33 *352:47 0.000369079
18 *351:43 *352:25 6.39997e-05
19 *1089:C *351:21 0
20 *1121:C *351:43 8.86669e-05
21 *1121:D *351:43 6.03429e-05
22 *1130:A1 *351:43 5.52302e-05
23 *1130:A2 *351:43 0
24 *1135:A1 *351:8 0
25 *1135:B1 *351:8 0
26 *113:8 *351:21 0
27 *137:37 *1132:A1 0.00015234
28 *137:37 *351:43 8.25098e-05
29 *242:18 *351:33 0.000225609
30 *242:18 *351:43 1.37292e-05
31 *264:69 *1384:A 9.90431e-05
32 *264:69 *351:8 0
*RES
1 *1286:Q *351:8 15.4429 
2 *351:8 *1384:A 14.7464 
3 *351:8 *351:21 6.75 
4 *351:21 *351:25 2.19643 
5 *351:25 *351:33 6.03571 
6 *351:33 *351:43 9.26786 
7 *351:43 *1132:A1 15.7464 
8 *351:43 *1120:B 13.8 
9 *351:33 *1121:B 9.3 
10 *351:25 *1085:B 9.3 
11 *351:21 *1086:B 9.3 
*END

*D_NET *352 0.00325322
*CONN
*I *1086:A I *D sky130_fd_sc_hd__or2_2
*I *1085:A I *D sky130_fd_sc_hd__nor2_2
*I *1121:A I *D sky130_fd_sc_hd__and4_2
*I *1120:A I *D sky130_fd_sc_hd__and3_2
*I *1132:B1 I *D sky130_fd_sc_hd__a21o_2
*I *1285:Q O *D sky130_fd_sc_hd__dfxtp_2
*CAP
1 *1086:A 6.85816e-05
2 *1085:A 0
3 *1121:A 0
4 *1120:A 0
5 *1132:B1 0
6 *1285:Q 0.000169516
7 *352:47 0.000370007
8 *352:38 0.000495701
9 *352:25 0.000458529
10 *352:10 0.00043377
11 *1120:C *352:25 6.56534e-05
12 *1121:C *352:38 0
13 *1130:A1 *352:38 1.19402e-05
14 *1130:A2 *352:25 4.89268e-05
15 *1132:A1 *352:10 5.80706e-06
16 *1132:A1 *352:25 7.8327e-05
17 *1133:A_N *352:10 1.00375e-05
18 *1133:A_N *352:25 4.8476e-05
19 *1133:C *352:10 5.56943e-05
20 *1134:A2 *352:38 9.60939e-05
21 *137:26 *352:10 3.93974e-05
22 *137:37 *352:10 5.90443e-06
23 *137:48 *352:25 1.5424e-05
24 *137:48 *352:38 5.52238e-05
25 *242:18 *352:38 0.00015134
26 *264:58 *352:25 2.95726e-05
27 *351:25 *1086:A 5.52238e-05
28 *351:25 *352:47 5.09955e-05
29 *351:33 *352:47 0.000369079
30 *351:43 *352:25 6.39997e-05
*RES
1 *1285:Q *352:10 16.8 
2 *352:10 *1132:B1 13.8 
3 *352:10 *352:25 10.1607 
4 *352:25 *1120:A 9.3 
5 *352:25 *352:38 12.9107 
6 *352:38 *1121:A 9.3 
7 *352:38 *352:47 6.19643 
8 *352:47 *1085:A 9.3 
9 *352:47 *1086:A 10.6571 
*END

*D_NET *353 0.00573747
*CONN
*I *1199:B I *D sky130_fd_sc_hd__nor3_2
*I *1200:B I *D sky130_fd_sc_hd__or4_2
*I *1096:B I *D sky130_fd_sc_hd__nand2_2
*I *1069:A I *D sky130_fd_sc_hd__inv_2
*I *1178:A1 I *D sky130_fd_sc_hd__o211a_2
*I *1189:B I *D sky130_fd_sc_hd__nor3_2
*I *1190:B I *D sky130_fd_sc_hd__or4_2
*I *1307:Q O *D sky130_fd_sc_hd__dfxtp_2
*CAP
1 *1199:B 7.41737e-05
2 *1200:B 0.000100289
3 *1096:B 0
4 *1069:A 0
5 *1178:A1 0.000340329
6 *1189:B 0.000132584
7 *1190:B 0.000274559
8 *1307:Q 4.16687e-05
9 *353:73 0.000330089
10 *353:42 0.000374061
11 *353:40 0.000323835
12 *353:34 0.00055607
13 *353:21 0.000332159
14 *353:8 0.000405462
15 *1189:B *1189:A 5.52302e-05
16 *1190:B *1190:A 0.000243642
17 *1199:B *1199:A 0.000153047
18 *1200:B *354:73 5.41494e-05
19 *353:21 *1190:A 0.000295844
20 *353:34 *1190:A 3.34366e-05
21 *353:34 *354:75 0.000190162
22 *353:73 *1199:A 7.22594e-05
23 *353:73 *354:75 0.00019384
24 *1178:A2 *1178:A1 2.04495e-05
25 *1182:A2 *1178:A1 2.16719e-05
26 *1182:B1 *1178:A1 7.6644e-05
27 *1183:A *353:40 0
28 *1183:B *1178:A1 5.26091e-05
29 *1191:A2 *1189:B 1.33343e-05
30 *1200:C *1199:B 0
31 *1200:C *353:73 0
32 *1369:A *1178:A1 0
33 *94:8 *1178:A1 3.67257e-05
34 *119:6 *353:40 0.000268682
35 *120:8 *1190:B 9.69119e-06
36 *158:16 *1190:B 0.00014285
37 *179:39 *1189:B 9.31794e-05
38 *185:8 *1190:B 0
39 *185:38 *1190:B 0
40 *185:38 *353:34 0
41 *185:38 *353:73 0
42 *185:47 *353:73 0
43 *239:161 *1178:A1 0
44 *239:179 *1178:A1 0
45 *246:12 *1190:B 3.17163e-05
46 *246:12 *353:8 2.89016e-05
47 *246:12 *353:21 0.000106299
48 *246:38 *353:21 5.33882e-05
49 *246:46 *1178:A1 3.34672e-05
50 *269:38 *1178:A1 7.77751e-05
51 *269:38 *353:40 3.98662e-05
52 *269:38 *353:42 5.33334e-05
*RES
1 *1307:Q *353:8 14.3357 
2 *353:8 *1190:B 19.2286 
3 *353:8 *353:21 3.76786 
4 *353:21 *1189:B 16.4071 
5 *353:21 *353:34 2.85714 
6 *353:34 *353:40 10.8036 
7 *353:40 *353:42 0.946429 
8 *353:42 *1178:A1 25.5366 
9 *353:42 *1069:A 9.3 
10 *353:40 *1096:B 9.3 
11 *353:34 *353:73 3.46429 
12 *353:73 *1200:B 15.1571 
13 *353:73 *1199:B 15.7464 
*END

*D_NET *354 0.00764337
*CONN
*I *1199:A I *D sky130_fd_sc_hd__nor3_2
*I *1189:A I *D sky130_fd_sc_hd__nor3_2
*I *1190:A I *D sky130_fd_sc_hd__or4_2
*I *1200:A I *D sky130_fd_sc_hd__or4_2
*I *1096:A I *D sky130_fd_sc_hd__nand2_2
*I *1182:A1 I *D sky130_fd_sc_hd__a22o_2
*I *1180:A I *D sky130_fd_sc_hd__or2_2
*I *1179:A I *D sky130_fd_sc_hd__nand2_2
*I *1308:Q O *D sky130_fd_sc_hd__dfxtp_2
*CAP
1 *1199:A 0.000107731
2 *1189:A 1.16062e-05
3 *1190:A 0.000350842
4 *1200:A 0
5 *1096:A 0
6 *1182:A1 0
7 *1180:A 2.23854e-05
8 *1179:A 0.00019872
9 *1308:Q 0
10 *354:75 0.00054036
11 *354:73 0.000354047
12 *354:64 0.000388542
13 *354:28 0.000549848
14 *354:20 0.000639328
15 *354:10 0.000439106
16 *354:4 0.000448658
17 *1182:A2 *354:20 3.046e-05
18 *1182:A2 *354:28 4.78056e-05
19 *1182:B1 *354:20 0.000137983
20 *1189:B *1189:A 5.52302e-05
21 *1190:B *1190:A 0.000243642
22 *1190:D *1190:A 0.000185643
23 *1191:A2 *1190:A 0
24 *1191:B1 *1190:A 4.87854e-05
25 *1199:B *1199:A 0.000153047
26 *1200:B *354:73 5.41494e-05
27 *1201:B1 *354:64 1.97695e-05
28 *1201:B1 *354:73 9.60875e-05
29 *1207:C1 *1179:A 0.000342502
30 *1308:CLK *1179:A 0
31 *1369:A *354:28 7.48091e-05
32 *119:10 *354:75 1.08359e-05
33 *173:36 *1179:A 0.000128154
34 *179:25 *1190:A 0
35 *179:39 *1189:A 5.52302e-05
36 *179:39 *354:20 0.000298982
37 *179:89 *354:75 0
38 *185:38 *354:10 0
39 *185:38 *354:20 0
40 *239:179 *354:10 5.97719e-05
41 *239:179 *354:20 0.000115072
42 *246:38 *354:20 0.00014183
43 *246:46 *354:20 5.52302e-05
44 *246:76 *1179:A 0
45 *247:98 *1199:A 9.41642e-05
46 *269:38 *1199:A 9.25014e-06
47 *269:38 *354:75 0.00012401
48 *269:57 *1199:A 0.000216771
49 *272:23 *1179:A 7.43578e-06
50 *353:21 *1190:A 0.000295844
51 *353:34 *1190:A 3.34366e-05
52 *353:34 *354:75 0.000190162
53 *353:73 *1199:A 7.22594e-05
54 *353:73 *354:75 0.00019384
*RES
1 *1308:Q *354:4 9.3 
2 *354:4 *354:10 6.67857 
3 *354:10 *354:20 12.5536 
4 *354:20 *354:28 13.3393 
5 *354:28 *1179:A 23.2107 
6 *354:28 *1180:A 9.72857 
7 *354:20 *1182:A1 9.3 
8 *354:10 *1096:A 13.8 
9 *354:4 *354:64 4.14286 
10 *354:64 *1200:A 9.3 
11 *354:64 *354:73 6.26786 
12 *354:73 *354:75 4.98214 
13 *354:75 *1190:A 22.675 
14 *354:75 *1189:A 14.3357 
15 *354:73 *1199:A 17.6036 
*END

*D_NET *355 0.0037545
*CONN
*I *1068:A I *D sky130_fd_sc_hd__inv_2
*I *1188:C1 I *D sky130_fd_sc_hd__a211o_2
*I *1184:A1 I *D sky130_fd_sc_hd__a22o_2
*I *1309:Q O *D sky130_fd_sc_hd__dfxtp_2
*CAP
1 *1068:A 0.000139562
2 *1188:C1 0.000125526
3 *1184:A1 0
4 *1309:Q 0.000651933
5 *355:16 0.000413698
6 *355:8 0.00107967
7 *1097:A *1068:A 9.71197e-05
8 *1184:A2 *1188:C1 0.000217533
9 *1184:A2 *355:16 3.64323e-05
10 *1184:B1 *1188:C1 8.07313e-05
11 *1184:B1 *355:16 3.57366e-05
12 *1184:B2 *1188:C1 9.91086e-05
13 *1185:B *1068:A 6.07232e-05
14 *1185:B *355:16 4.81157e-05
15 *1186:A *355:16 5.0725e-05
16 *1186:B *355:16 8.07313e-05
17 *1186:C *355:8 8.25843e-06
18 *1198:C1 *355:8 1.40415e-05
19 *1309:CLK *1068:A 2.16719e-05
20 *1309:CLK *355:8 2.59355e-05
21 *1309:D *355:8 3.32132e-06
22 *93:12 *1068:A 7.6644e-05
23 *93:12 *355:16 8.32171e-05
24 *116:29 *355:16 0
25 *120:8 *1188:C1 4.38621e-05
26 *158:16 *1068:A 0.000137983
27 *178:10 *1188:C1 0.00012222
*RES
1 *1309:Q *355:8 21.3179 
2 *355:8 *355:16 10.9821 
3 *355:16 *1184:A1 9.3 
4 *355:16 *1188:C1 22.4429 
5 *355:8 *1068:A 17.2286 
*END

*D_NET *356 0.000323664
*CONN
*I *1391:A I *D sky130_fd_sc_hd__dlygate4sd3_1
*I *1310:Q O *D sky130_fd_sc_hd__dfxtp_2
*CAP
1 *1391:A 3.19637e-05
2 *1310:Q 3.19637e-05
3 *1296:D *1391:A 0.000129868
4 *158:27 *1391:A 0.000129868
*RES
1 *1310:Q *1391:A 29.2429 
*END

*D_NET *357 0.000608592
*CONN
*I *1378:A I *D sky130_fd_sc_hd__dlygate4sd3_1
*I *1311:Q O *D sky130_fd_sc_hd__dfxtp_2
*CAP
1 *1378:A 0.000123123
2 *1311:Q 0.000123123
3 *1378:A *1367:A 0.00012501
4 *1192:B1_N *1378:A 1.98839e-05
5 *159:27 *1378:A 0.000123288
6 *268:31 *1378:A 9.41642e-05
*RES
1 *1311:Q *1378:A 30.6 
*END

*D_NET *358 0.0015523
*CONN
*I *1387:A I *D sky130_fd_sc_hd__dlygate4sd3_1
*I *1312:Q O *D sky130_fd_sc_hd__dfxtp_2
*CAP
1 *1387:A 0.000360355
2 *1312:Q 0.000360355
3 *1207:C1 *1387:A 4.87953e-05
4 *1446:A *1387:A 0.000141382
5 *158:63 *1387:A 0.000338344
6 *185:66 *1387:A 9.6561e-06
7 *253:10 *1387:A 0.000293415
8 *289:10 *1387:A 0
*RES
1 *1312:Q *1387:A 35.8679 
*END

*D_NET *359 0.00288043
*CONN
*I *1389:A I *D sky130_fd_sc_hd__dlygate4sd3_1
*I *1313:Q O *D sky130_fd_sc_hd__dfxtp_2
*CAP
1 *1389:A 0.000568376
2 *1313:Q 0.000568376
3 *1157:A1 *1389:A 4.60088e-05
4 *1157:A2 *1389:A 0.000706214
5 *1157:B1 *1389:A 5.52302e-05
6 *1157:C1 *1389:A 5.52302e-05
7 *1162:B *1389:A 5.29648e-05
8 *1165:B1 *1389:A 0.000416477
9 *158:27 *1389:A 0
10 *158:31 *1389:A 5.21676e-05
11 *159:91 *1389:A 0.000359387
*RES
1 *1313:Q *1389:A 44.1 
*END

*D_NET *360 0.000331028
*CONN
*I *1392:A I *D sky130_fd_sc_hd__dlygate4sd3_1
*I *1314:Q O *D sky130_fd_sc_hd__dfxtp_2
*CAP
1 *1392:A 3.8068e-05
2 *1314:Q 3.8068e-05
3 *1165:B1 *1392:A 0.000127446
4 *158:31 *1392:A 0.000127446
*RES
1 *1314:Q *1392:A 29.2429 
*END

*D_NET *361 0.000199823
*CONN
*I *1376:A I *D sky130_fd_sc_hd__dlygate4sd3_1
*I *1315:Q O *D sky130_fd_sc_hd__dfxtp_2
*CAP
1 *1376:A 9.99117e-05
2 *1315:Q 9.99117e-05
3 *1345:CLK *1376:A 0
*RES
1 *1315:Q *1376:A 29.2429 
*END

*D_NET *362 0.00043604
*CONN
*I *1382:A I *D sky130_fd_sc_hd__dlygate4sd3_1
*I *1316:Q O *D sky130_fd_sc_hd__dfxtp_2
*CAP
1 *1382:A 0.00016754
2 *1316:Q 0.00016754
3 *1168:A *1382:A 0
4 *1168:B *1382:A 0
5 *1169:A2 *1382:A 0.00010096
6 *1204:B1_N *1382:A 0
7 *1312:CLK *1382:A 0
*RES
1 *1316:Q *1382:A 30.1893 
*END

*D_NET *363 0.000716809
*CONN
*I *1385:A I *D sky130_fd_sc_hd__dlygate4sd3_1
*I *1317:Q O *D sky130_fd_sc_hd__dfxtp_2
*CAP
1 *1385:A 0.000246627
2 *1317:Q 0.000246627
3 *1170:A *1385:A 0.000104227
4 *1171:B1 *1385:A 5.62995e-05
5 *1206:B1_N *1385:A 0
6 *1451:A *1385:A 6.30292e-05
*RES
1 *1317:Q *1385:A 32.6179 
*END

*D_NET *364 0.000855752
*CONN
*I *1373:A I *D sky130_fd_sc_hd__dlygate4sd3_1
*I *1304:Q O *D sky130_fd_sc_hd__dfxtp_2
*CAP
1 *1373:A 0.000427876
2 *1304:Q 0.000427876
*RES
1 *1304:Q *1373:A 24.9036 
*END

*D_NET *365 0.00582346
*CONN
*I *1367:A I *D sky130_fd_sc_hd__clkdlybuf4s25_1
*I *1366:A I *D sky130_fd_sc_hd__clkdlybuf4s25_1
*I *1305:Q O *D sky130_fd_sc_hd__dfxtp_2
*CAP
1 *1367:A 0.00125316
2 *1366:A 9.60997e-05
3 *1305:Q 0.00045846
4 *365:10 0.00180772
5 *1366:A *368:6 5.62995e-05
6 *1367:A *1105:C 0
7 *365:10 *367:27 0
8 *1104:B *1367:A 0
9 *1106:B1 *1367:A 0
10 *1106:B1 *365:10 0
11 *1159:A1 *1367:A 0.000270958
12 *1205:C1 *1367:A 9.0145e-05
13 *1345:D *1367:A 0
14 *1347:CLK *1367:A 0
15 *1377:A *1367:A 0
16 *1378:A *1367:A 0.00012501
17 *124:30 *365:10 2.27416e-05
18 *124:34 *365:10 0.000174361
19 *159:10 *1367:A 0.000250193
20 *159:27 *1367:A 0.00082606
21 *159:38 *1367:A 0.000164554
22 *239:23 *1367:A 0
23 *266:12 *1366:A 4.88546e-05
24 *266:81 *1367:A 0
25 *267:17 *1367:A 0.000178847
26 *272:12 *1367:A 0
27 *272:57 *1367:A 0
*RES
1 *1305:Q *365:10 20.3893 
2 *365:10 *1366:A 15.9786 
3 *365:10 *1367:A 42.1036 
*END

*D_NET *366 0.00116091
*CONN
*I *1105:B I *D sky130_fd_sc_hd__and3b_2
*I *1407:A I *D sky130_fd_sc_hd__dlygate4sd3_1
*I *1306:Q O *D sky130_fd_sc_hd__dfxtp_2
*CAP
1 *1105:B 0.000178311
2 *1407:A 2.03441e-05
3 *1306:Q 0.000202429
4 *366:6 0.000401084
5 *1106:B1 *1105:B 2.95641e-05
6 *1106:B1 *366:6 0.000247216
7 *127:23 *1105:B 7.61932e-05
8 *127:23 *1407:A 5.7661e-06
*RES
1 *1306:Q *366:6 13.5321 
2 *366:6 *1407:A 9.72857 
3 *366:6 *1105:B 11.9071 
*END

*D_NET *367 0.00522455
*CONN
*I *1105:C I *D sky130_fd_sc_hd__and3b_2
*I *1076:A I *D sky130_fd_sc_hd__inv_2
*I *1187:A I *D sky130_fd_sc_hd__or2_2
*I *1418:A I *D sky130_fd_sc_hd__dlygate4sd3_1
*I *1344:Q O *D sky130_fd_sc_hd__dfxtp_2
*CAP
1 *1105:C 9.747e-05
2 *1076:A 2.80025e-05
3 *1187:A 0.000866958
4 *1418:A 0.000245187
5 *1344:Q 7.17422e-05
6 *367:31 0.00108552
7 *367:27 0.00054438
8 *367:6 0.000573276
9 *1187:A *1108:C_N 0
10 *1187:A *1152:A2 9.25014e-06
11 *1187:A *1153:B 8.64034e-05
12 *1187:A *1176:C1 1.24368e-05
13 *1187:A *368:17 7.71303e-05
14 *1187:A *368:36 2.04825e-05
15 *1187:A *368:67 0.000246325
16 *1187:A *369:27 0
17 *1187:A *370:22 4.64488e-06
18 *367:31 *368:6 0.000105163
19 *367:31 *368:17 7.19557e-05
20 *1108:A *1418:A 0
21 *1108:A *367:27 0
22 *1108:A *367:31 0.000142856
23 *1108:B *1105:C 0
24 *1108:B *367:27 0
25 *1111:B1 *1418:A 0.000126629
26 *1111:C1 *1418:A 8.23597e-06
27 *1153:A *1187:A 5.33005e-05
28 *1153:D *1187:A 3.14078e-05
29 *1176:B1 *1187:A 6.71657e-05
30 *1187:B *1187:A 9.72029e-05
31 *1367:A *1105:C 0
32 *117:16 *1187:A 9.59532e-06
33 *124:30 *1418:A 0
34 *124:30 *367:6 3.67142e-05
35 *124:30 *367:27 5.04705e-05
36 *142:12 *1187:A 0.000175508
37 *239:122 *1187:A 4.64488e-06
38 *266:75 *1105:C 2.56601e-05
39 *266:81 *1105:C 1.64343e-05
40 *300:42 *1418:A 0.000232399
41 *365:10 *367:27 0
*RES
1 *1344:Q *367:6 10.2464 
2 *367:6 *1418:A 23.6393 
3 *367:6 *367:27 8.33929 
4 *367:27 *367:31 8.9375 
5 *367:31 *1187:A 38.3596 
6 *367:31 *1076:A 10.0411 
7 *367:27 *1105:C 15.608 
*END

*D_NET *368 0.0125083
*CONN
*I *1430:A I *D sky130_fd_sc_hd__dlygate4sd3_1
*I *1174:A1 I *D sky130_fd_sc_hd__a21oi_2
*I *1188:A1 I *D sky130_fd_sc_hd__a211o_2
*I *1198:A1 I *D sky130_fd_sc_hd__a211o_2
*I *1175:A1 I *D sky130_fd_sc_hd__a21o_2
*I *1124:A1 I *D sky130_fd_sc_hd__o21a_2
*I *1150:A2 I *D sky130_fd_sc_hd__o311a_2
*I *1176:C1 I *D sky130_fd_sc_hd__o211a_2
*I *1152:A2 I *D sky130_fd_sc_hd__o311a_2
*I *1108:C_N I *D sky130_fd_sc_hd__or3b_2
*I *1345:Q O *D sky130_fd_sc_hd__dfxtp_2
*CAP
1 *1430:A 0.000347824
2 *1174:A1 0
3 *1188:A1 0.000315488
4 *1198:A1 3.68498e-05
5 *1175:A1 0.000122728
6 *1124:A1 0
7 *1150:A2 0.000396855
8 *1176:C1 6.37347e-05
9 *1152:A2 0.000485056
10 *1108:C_N 2.23854e-05
11 *1345:Q 9.7717e-05
12 *368:108 0.000541934
13 *368:93 0.000516546
14 *368:69 0.000429441
15 *368:67 0.000913901
16 *368:53 0.000695734
17 *368:49 0.000468674
18 *368:36 0.000222467
19 *368:17 0.000673812
20 *368:6 0.000252336
21 *1150:A2 *1123:A 0
22 *1150:A2 *369:27 0
23 *1152:A2 *1111:A1 0
24 *1152:A2 *1152:A1 0
25 *368:53 *370:16 1.98839e-05
26 *368:67 *1153:B 1.98839e-05
27 *368:67 *1420:A 6.05161e-06
28 *368:67 *370:16 0.000266486
29 *1098:B *1188:A1 1.68715e-05
30 *1098:B *368:108 1.56e-05
31 *1099:A1 *1430:A 5.52238e-05
32 *1108:A *1152:A2 0
33 *1108:A *368:17 0.000142856
34 *1108:B *1152:A2 1.19309e-05
35 *1108:B *368:36 1.69115e-05
36 *1108:B *368:49 0
37 *1111:A2 *1152:A2 1.90936e-05
38 *1112:A1 *1152:A2 6.7257e-05
39 *1124:B1 *1150:A2 1.41706e-05
40 *1124:B1 *368:69 1.78353e-05
41 *1124:B1 *368:93 7.07908e-05
42 *1150:A1 *1150:A2 0
43 *1150:A3 *1150:A2 5.52302e-05
44 *1150:B1 *1150:A2 3.57366e-05
45 *1150:C1 *1150:A2 0.000153533
46 *1153:D *368:67 0.000137983
47 *1174:A2 *368:49 0.000125724
48 *1175:A2 *1175:A1 5.71472e-05
49 *1176:A1 *1176:C1 7.16452e-05
50 *1176:A1 *368:67 9.25014e-06
51 *1176:A2 *368:67 9.8574e-05
52 *1184:A2 *1175:A1 0.000307154
53 *1184:B1 *1175:A1 0.000532305
54 *1187:A *1108:C_N 0
55 *1187:A *1152:A2 9.25014e-06
56 *1187:A *1176:C1 1.24368e-05
57 *1187:A *368:17 7.71303e-05
58 *1187:A *368:36 2.04825e-05
59 *1187:A *368:67 0.000246325
60 *1198:A2 *368:108 6.05161e-06
61 *1198:B1 *1188:A1 1.32552e-05
62 *1198:B1 *1198:A1 5.04841e-06
63 *1198:C1 *1188:A1 0.000142023
64 *1198:C1 *1198:A1 0
65 *1294:D *1152:A2 0
66 *1295:D *1150:A2 0
67 *1364:A *1150:A2 1.74352e-05
68 *1366:A *368:6 5.62995e-05
69 *1370:A *1430:A 0.000122417
70 *1404:A *1152:A2 5.82933e-05
71 *116:48 *368:108 1.90936e-05
72 *116:63 *1198:A1 0
73 *117:16 *1152:A2 3.73785e-05
74 *117:16 *1430:A 0.000243635
75 *117:16 *368:36 7.47029e-06
76 *117:16 *368:49 0.000171375
77 *120:8 *368:108 0
78 *127:23 *368:53 5.33005e-05
79 *127:23 *368:67 8.25996e-05
80 *141:12 *1150:A2 0.000100831
81 *142:12 *1150:A2 8.78746e-05
82 *142:16 *1150:A2 0.000293932
83 *170:8 *368:67 4.78056e-05
84 *178:10 *368:93 0
85 *178:10 *368:108 0
86 *239:105 *1430:A 3.19049e-05
87 *239:110 *1430:A 0.000225604
88 *239:153 *1175:A1 6.05161e-06
89 *264:12 *1152:A2 0.000320031
90 *264:22 *1152:A2 5.71472e-05
91 *266:12 *368:6 0.000404707
92 *266:38 *368:6 5.71472e-05
93 *266:38 *368:17 0.000126572
94 *271:19 *368:67 7.48301e-06
95 *271:45 *368:93 5.03694e-05
96 *271:45 *368:108 6.7309e-05
97 *300:42 *1152:A2 9.65161e-05
98 *344:14 *1150:A2 0
99 *344:14 *368:69 0
100 *367:31 *368:6 0.000105163
101 *367:31 *368:17 7.19557e-05
*RES
1 *1345:Q *368:6 13.5321 
2 *368:6 *1108:C_N 9.72857 
3 *368:6 *368:17 7.91071 
4 *368:17 *1152:A2 24.2286 
5 *368:17 *368:36 1.26786 
6 *368:36 *1176:C1 15.1571 
7 *368:36 *368:49 2.78571 
8 *368:49 *368:53 5.03571 
9 *368:53 *368:67 24.9643 
10 *368:67 *368:69 0.732143 
11 *368:69 *1150:A2 23.4607 
12 *368:69 *1124:A1 13.8 
13 *368:67 *368:93 4.375 
14 *368:93 *1175:A1 19.675 
15 *368:93 *368:108 7.89286 
16 *368:108 *1198:A1 10.0321 
17 *368:108 *1188:A1 14.175 
18 *368:53 *1174:A1 9.3 
19 *368:49 *1430:A 22.0321 
*END

*D_NET *369 0.00953493
*CONN
*I *1146:A3 I *D sky130_fd_sc_hd__a32o_2
*I *1123:B I *D sky130_fd_sc_hd__or2_2
*I *1397:A I *D sky130_fd_sc_hd__dlygate4sd3_1
*I *1346:Q O *D sky130_fd_sc_hd__dfxtp_2
*CAP
1 *1146:A3 0.000895294
2 *1123:B 1.1624e-05
3 *1397:A 0
4 *1346:Q 0.000168262
5 *369:27 0.00254939
6 *369:10 0.00181073
7 *1123:B *1123:A 5.52238e-05
8 *369:27 *1123:A 2.92126e-05
9 *1106:B1 *369:10 8.6229e-06
10 *1106:B1 *369:27 5.63803e-05
11 *1111:A2 *369:27 0.000532224
12 *1111:C1 *369:27 0.000631061
13 *1115:B *1146:A3 0.000199731
14 *1145:A *1146:A3 0.000351467
15 *1146:A2 *1146:A3 4.77002e-05
16 *1146:B1 *1146:A3 0.000171633
17 *1150:A1 *1146:A3 1.27784e-05
18 *1150:A1 *369:27 1.00375e-05
19 *1150:A2 *369:27 0
20 *1151:A1 *1123:B 5.52238e-05
21 *1187:A *369:27 0
22 *1295:D *1146:A3 0.000606612
23 *115:35 *369:27 0.000164936
24 *116:10 *1146:A3 4.11486e-05
25 *133:10 *1146:A3 3.2923e-05
26 *141:12 *1146:A3 0.000188586
27 *142:12 *1146:A3 5.7234e-05
28 *340:23 *1146:A3 0
29 *344:14 *1146:A3 0.000184583
30 *344:16 *1146:A3 0.00047432
31 *344:18 *1146:A3 0.000187988
32 *345:10 *1146:A3 0
*RES
1 *1346:Q *369:10 16.2821 
2 *369:10 *1397:A 13.8 
3 *369:10 *369:27 12.2535 
4 *369:27 *1123:B 14.3357 
5 *369:27 *1146:A3 46.4071 
*END

*D_NET *370 0.00999826
*CONN
*I *1095:A I *D sky130_fd_sc_hd__and3_2
*I *1155:B I *D sky130_fd_sc_hd__nand3_2
*I *1154:B I *D sky130_fd_sc_hd__and3_2
*I *1420:A I *D sky130_fd_sc_hd__dlygate4sd3_1
*I *1153:B I *D sky130_fd_sc_hd__and4_2
*I *1123:A I *D sky130_fd_sc_hd__or2_2
*I *1111:A1 I *D sky130_fd_sc_hd__a221o_2
*I *1152:A1 I *D sky130_fd_sc_hd__o311a_2
*I *1347:Q O *D sky130_fd_sc_hd__dfxtp_2
*CAP
1 *1095:A 0.000155213
2 *1155:B 4.54943e-05
3 *1154:B 0.000234501
4 *1420:A 5.95204e-05
5 *1153:B 2.78064e-05
6 *1123:A 0.000340908
7 *1111:A1 3.84354e-05
8 *1152:A1 0.000264265
9 *1347:Q 0
10 *370:91 0.000397122
11 *370:87 0.000491977
12 *370:26 0.000785922
13 *370:22 0.00104506
14 *370:18 0.000307772
15 *370:16 0.000727938
16 *370:4 0.000829016
17 *1095:C *1095:A 5.45614e-05
18 *1108:B *370:16 0.000202089
19 *1112:B1 *370:26 3.30526e-05
20 *1123:B *1123:A 5.52238e-05
21 *1150:A1 *1123:A 0.00012416
22 *1150:A2 *1123:A 0
23 *1150:A3 *1123:A 0.000108734
24 *1150:A3 *370:22 1.76135e-05
25 *1151:A1 *1123:A 4.43355e-05
26 *1152:A2 *1111:A1 0
27 *1152:A2 *1152:A1 0
28 *1153:A *370:22 9.91086e-05
29 *1153:C *1420:A 2.97756e-05
30 *1153:C *370:18 2.83916e-05
31 *1153:D *1153:B 5.52302e-05
32 *1153:D *370:18 3.34366e-05
33 *1153:D *370:22 6.73939e-05
34 *1154:C *1154:B 7.26949e-05
35 *1174:A2 *370:16 2.59093e-05
36 *1176:A2 *370:22 0
37 *1187:A *1153:B 8.64034e-05
38 *1187:A *370:22 4.64488e-06
39 *1292:D *1123:A 5.33005e-05
40 *1294:D *1152:A1 0
41 *1344:CLK *1111:A1 4.73656e-05
42 *1344:CLK *1152:A1 0.000179656
43 *1364:A *1123:A 4.28077e-05
44 *1364:A *370:26 2.89016e-05
45 *1370:A *1155:B 0
46 *1370:A *370:16 0.000337644
47 *1404:A *1152:A1 5.62995e-05
48 *115:10 *370:22 3.52401e-05
49 *115:35 *370:22 0.00030171
50 *117:16 *370:91 0
51 *121:8 *1095:A 2.95726e-05
52 *121:8 *370:16 1.58163e-05
53 *121:8 *370:87 0.000115141
54 *127:23 *370:16 4.16984e-05
55 *169:18 *370:91 6.39997e-05
56 *170:8 *1420:A 7.22594e-05
57 *170:8 *370:18 0.000100823
58 *239:122 *370:22 0
59 *243:40 *1152:A1 0.000179656
60 *264:12 *370:26 0.000180777
61 *264:22 *1152:A1 0.000178459
62 *266:117 *1154:B 0.000142876
63 *271:19 *1420:A 7.32173e-05
64 *271:59 *1155:B 7.83659e-05
65 *271:59 *370:91 7.6644e-05
66 *300:42 *370:26 0.000330806
67 *368:53 *370:16 1.98839e-05
68 *368:67 *1153:B 1.98839e-05
69 *368:67 *1420:A 6.05161e-06
70 *368:67 *370:16 0.000266486
71 *369:27 *1123:A 2.92126e-05
*RES
1 *1347:Q *370:4 9.3 
2 *370:4 *370:16 24.4821 
3 *370:16 *370:18 1.64286 
4 *370:18 *370:22 10.0893 
5 *370:22 *370:26 13.6607 
6 *370:26 *1152:A1 21.175 
7 *370:26 *1111:A1 14.5321 
8 *370:22 *1123:A 24.6393 
9 *370:18 *1153:B 14.7464 
10 *370:16 *1420:A 16.1929 
11 *370:4 *370:87 3 
12 *370:87 *370:91 7.05357 
13 *370:91 *1154:B 16.8 
14 *370:91 *1155:B 14.8357 
15 *370:87 *1095:A 11.4964 
*END

*D_NET *371 0.00632452
*CONN
*I *1218:A I *D sky130_fd_sc_hd__nand3_2
*I *1219:A1 I *D sky130_fd_sc_hd__a21o_2
*I *1208:B I *D sky130_fd_sc_hd__nand2b_2
*I *1216:A_N I *D sky130_fd_sc_hd__nand2b_2
*I *1222:A1 I *D sky130_fd_sc_hd__a31o_2
*I *1429:A I *D sky130_fd_sc_hd__dlygate4sd3_1
*I *1221:A I *D sky130_fd_sc_hd__and4_2
*I *1318:Q O *D sky130_fd_sc_hd__dfxtp_2
*CAP
1 *1218:A 0.000437163
2 *1219:A1 0
3 *1208:B 0.000324766
4 *1216:A_N 3.08226e-05
5 *1222:A1 4.36033e-05
6 *1429:A 0.000103307
7 *1221:A 0.000987905
8 *1318:Q 0.000147521
9 *371:74 0.000524816
10 *371:54 0.000504134
11 *371:50 0.000290981
12 *371:37 0.000355559
13 *371:6 0.00098156
14 *1208:B *1208:A_N 0
15 *1208:B *1210:A 0.000166973
16 *1208:B *375:45 9.25014e-06
17 *1218:A *1218:B 5.7661e-06
18 *1218:A *1401:A 2.27416e-05
19 *1218:A *375:39 0.00023055
20 *1222:A1 *376:31 5.33005e-05
21 *371:37 *1219:B1 0
22 *371:37 *1221:B 0.000387432
23 *371:37 *377:28 0
24 *371:50 *375:45 3.34687e-05
25 *371:54 *375:39 0
26 *371:54 *375:45 5.03772e-05
27 *371:74 *375:39 5.71472e-05
28 *371:74 *375:45 4.59075e-05
29 *1212:B *1208:B 0
30 *1217:A1 *1208:B 0.000158986
31 *1217:A2 *1208:B 4.26814e-05
32 *1220:B *1429:A 0
33 *1220:C *1218:A 0.000230475
34 *1318:CLK *371:37 0
35 *1318:D *1221:A 9.73242e-05
36 *1321:D *371:37 0
*RES
1 *1318:Q *371:6 11.0679 
2 *371:6 *1221:A 18.0679 
3 *371:6 *1429:A 19.9429 
4 *1221:A *371:37 19.6214 
5 *371:37 *1222:A1 14.3357 
6 *371:37 *371:50 5.53571 
7 *371:50 *371:54 2.08929 
8 *371:54 *1216:A_N 9.83571 
9 *371:54 *1208:B 25.7107 
10 *371:50 *371:74 1.35714 
11 *371:74 *1219:A1 9.3 
12 *371:74 *1218:A 15.9071 
*END

*D_NET *372 0.00751737
*CONN
*I *1244:A1 I *D sky130_fd_sc_hd__a21o_2
*I *1406:A I *D sky130_fd_sc_hd__dlygate4sd3_1
*I *1242:A1 I *D sky130_fd_sc_hd__a211o_2
*I *1247:A1 I *D sky130_fd_sc_hd__a31o_2
*I *1210:A I *D sky130_fd_sc_hd__or3_2
*I *1328:Q O *D sky130_fd_sc_hd__dfxtp_2
*CAP
1 *1244:A1 2.23854e-05
2 *1406:A 0
3 *1242:A1 0.000105323
4 *1247:A1 0
5 *1210:A 0.00041043
6 *1328:Q 0.000462002
7 *372:40 0.000197779
8 *372:38 0.000337905
9 *372:14 0.000835866
10 *372:8 0.0011105
11 *1210:A *1210:B 0.000404626
12 *1210:A *373:20 1.00887e-05
13 *372:14 *373:20 1.27824e-05
14 *372:40 *1244:B1 5.52238e-05
15 *1173:B *372:14 0
16 *1208:B *1210:A 0.000166973
17 *1242:A2 *1242:A1 3.77609e-05
18 *1242:B1 *1242:A1 9.15016e-05
19 *1244:A2 *372:38 3.17148e-05
20 *1247:B1 *372:14 6.05161e-06
21 *1346:CLK *372:14 0
22 *213:17 *372:14 0.000374007
23 *213:32 *372:14 5.83304e-05
24 *213:41 *372:14 0.000272665
25 *213:41 *372:38 0.000284165
26 *213:45 *1242:A1 0.000594546
27 *213:45 *372:38 4.18895e-05
28 *213:45 *372:40 0.000256422
29 *240:24 *1210:A 0.00030541
30 *241:8 *372:14 0
31 *241:8 *372:38 0
32 *241:18 *372:8 0.00047536
33 *241:20 *372:8 9.74665e-05
34 *241:73 *372:38 0
35 *273:65 *1242:A1 1.10868e-05
36 *273:78 *1242:A1 0.000447104
37 *318:10 *372:14 0
*RES
1 *1328:Q *372:8 20.0857 
2 *372:8 *372:14 14.375 
3 *372:14 *1210:A 28.2464 
4 *372:14 *1247:A1 9.3 
5 *372:8 *372:38 9.51786 
6 *372:38 *372:40 2.58929 
7 *372:40 *1242:A1 15.7286 
8 *372:40 *1406:A 9.3 
9 *372:38 *1244:A1 9.72857 
*END

*D_NET *373 0.00467304
*CONN
*I *1244:B1 I *D sky130_fd_sc_hd__a21o_2
*I *1245:B I *D sky130_fd_sc_hd__nand3_2
*I *1247:A2 I *D sky130_fd_sc_hd__a31o_2
*I *1210:B I *D sky130_fd_sc_hd__or3_2
*I *1329:Q O *D sky130_fd_sc_hd__dfxtp_2
*CAP
1 *1244:B1 0.000225364
2 *1245:B 4.56266e-05
3 *1247:A2 0
4 *1210:B 0.00054228
5 *1329:Q 0.000196309
6 *373:20 0.000722607
7 *373:14 0.00033155
8 *373:10 0.00052727
9 *1210:A *1210:B 0.000404626
10 *1210:A *373:20 1.00887e-05
11 *1243:A2 *1245:B 2.89016e-05
12 *1244:A2 *1244:B1 2.16719e-05
13 *1248:A2 *1245:B 1.24368e-05
14 *1248:A2 *373:14 2.84398e-05
15 *1248:A2 *373:20 7.4826e-05
16 *1248:B1 *373:20 0.000202842
17 *213:17 *373:20 6.36951e-06
18 *213:41 *1244:B1 0.000218114
19 *213:41 *373:14 3.87941e-05
20 *239:33 *1244:B1 7.63851e-05
21 *239:35 *1210:B 8.22475e-05
22 *239:35 *1244:B1 8.22802e-05
23 *239:35 *373:14 9.21958e-05
24 *239:35 *373:20 0.000207408
25 *240:24 *1210:B 0.000347972
26 *241:18 *373:10 7.84241e-05
27 *372:14 *373:20 1.27824e-05
28 *372:40 *1244:B1 5.52238e-05
*RES
1 *1329:Q *373:10 16.4071 
2 *373:10 *373:14 2.78571 
3 *373:14 *373:20 5.94643 
4 *373:20 *1210:B 23.1393 
5 *373:20 *1247:A2 13.8 
6 *373:14 *1245:B 14.7643 
7 *373:10 *1244:B1 20.2286 
*END

*D_NET *374 0.00194122
*CONN
*I *1413:A I *D sky130_fd_sc_hd__dlygate4sd3_1
*I *1210:C I *D sky130_fd_sc_hd__or3_2
*I *1330:Q O *D sky130_fd_sc_hd__dfxtp_2
*CAP
1 *1413:A 0.000291419
2 *1210:C 0.000232965
3 *1330:Q 0.000304312
4 *374:8 0.000828696
5 *1247:B1 *1413:A 0
6 *1247:B1 *374:8 7.88091e-05
7 *1319:D *1210:C 0.000147784
8 *1330:D *1413:A 5.72359e-05
9 *1346:D *1413:A 0
10 *318:10 *1413:A 0
*RES
1 *1330:Q *374:8 17.6214 
2 *374:8 *1210:C 18.175 
3 *374:8 *1413:A 19.3893 
*END

*D_NET *375 0.00453136
*CONN
*I *1219:A2 I *D sky130_fd_sc_hd__a21o_2
*I *1208:A_N I *D sky130_fd_sc_hd__nand2b_2
*I *1221:B I *D sky130_fd_sc_hd__and4_2
*I *1222:A2 I *D sky130_fd_sc_hd__a31o_2
*I *1218:B I *D sky130_fd_sc_hd__nand3_2
*I *1401:A I *D sky130_fd_sc_hd__dlygate4sd3_1
*I *1319:Q O *D sky130_fd_sc_hd__dfxtp_2
*CAP
1 *1219:A2 0
2 *1208:A_N 0.000366909
3 *1221:B 0.000167566
4 *1222:A2 0
5 *1218:B 5.27701e-05
6 *1401:A 0.000228201
7 *1319:Q 0.000100921
8 *375:45 0.000324099
9 *375:39 0.000699394
10 *375:10 0.00020594
11 *1208:A_N *1219:B1 2.8266e-06
12 *1221:B *1221:C 0.000341788
13 *375:45 *1219:B1 0
14 *1208:B *1208:A_N 0
15 *1208:B *375:45 9.25014e-06
16 *1212:C *1208:A_N 2.24718e-05
17 *1216:B *375:39 0.000230526
18 *1216:B *375:45 0.00014285
19 *1217:A1 *1208:A_N 1.69976e-05
20 *1217:A2 *1208:A_N 6.66813e-05
21 *1218:A *1218:B 5.7661e-06
22 *1218:A *1401:A 2.27416e-05
23 *1218:A *375:39 0.00023055
24 *1220:C *375:39 0.000230475
25 *1319:CLK *1208:A_N 0.000127939
26 *1402:A *1208:A_N 0.000360366
27 *371:37 *1221:B 0.000387432
28 *371:50 *375:45 3.34687e-05
29 *371:54 *375:39 0
30 *371:54 *375:45 5.03772e-05
31 *371:74 *375:39 5.71472e-05
32 *371:74 *375:45 4.59075e-05
*RES
1 *1319:Q *375:10 19.9429 
2 *375:10 *1401:A 10.2464 
3 *375:10 *1218:B 10.2643 
4 *1401:A *375:39 15.7464 
5 *375:39 *375:45 7.91071 
6 *375:45 *1222:A2 13.8 
7 *375:45 *1221:B 19.3179 
8 *375:39 *1208:A_N 26.9607 
9 *375:39 *1219:A2 9.3 
*END

*D_NET *376 0.00408697
*CONN
*I *1427:A I *D sky130_fd_sc_hd__dlygate4sd3_1
*I *1221:C I *D sky130_fd_sc_hd__and4_2
*I *1222:A3 I *D sky130_fd_sc_hd__a31o_2
*I *1209:A I *D sky130_fd_sc_hd__or4b_2
*I *1219:B1 I *D sky130_fd_sc_hd__a21o_2
*I *1320:Q O *D sky130_fd_sc_hd__dfxtp_2
*CAP
1 *1427:A 8.93273e-05
2 *1221:C 0.000173567
3 *1222:A3 0
4 *1209:A 0.000173868
5 *1219:B1 0.000169586
6 *1320:Q 6.70433e-05
7 *376:33 0.000201515
8 *376:31 0.000353713
9 *376:16 0.000873926
10 *376:10 0.000708211
11 *1209:A *1209:D_N 9.11545e-05
12 *1221:C *1209:D_N 0
13 *1221:C *1221:D 7.83587e-05
14 *376:16 *1209:D_N 9.90367e-05
15 *376:16 *1425:A 0.000142856
16 *376:31 *1209:D_N 7.21879e-05
17 *376:33 *1209:D_N 2.14658e-05
18 *1208:A_N *1219:B1 2.8266e-06
19 *1212:B *1209:A 3.13687e-05
20 *1220:C *1219:B1 0
21 *1221:B *1221:C 0.000341788
22 *1222:A1 *376:31 5.33005e-05
23 *1222:B1 *376:31 0.000144773
24 *1223:B *1221:C 0
25 *1321:D *1221:C 1.17968e-05
26 *1428:A *376:16 5.71472e-05
27 *242:61 *376:10 0.000128154
28 *371:37 *1219:B1 0
29 *375:45 *1219:B1 0
*RES
1 *1320:Q *376:10 19.9429 
2 *376:10 *376:16 10.125 
3 *376:16 *1219:B1 20.55 
4 *376:16 *376:31 3.42857 
5 *376:31 *376:33 0.535714 
6 *376:33 *1209:A 12.8536 
7 *376:33 *1222:A3 9.3 
8 *376:31 *1221:C 23.1036 
9 *376:10 *1427:A 10.6571 
*END

*D_NET *377 0.00251508
*CONN
*I *1425:A I *D sky130_fd_sc_hd__dlygate4sd3_1
*I *1209:D_N I *D sky130_fd_sc_hd__or4b_2
*I *1221:D I *D sky130_fd_sc_hd__and4_2
*I *1321:Q O *D sky130_fd_sc_hd__dfxtp_2
*CAP
1 *1425:A 5.08031e-05
2 *1209:D_N 0.00025526
3 *1221:D 0.000343529
4 *1321:Q 0.00044133
5 *377:28 0.000403864
6 *1209:A *1209:D_N 9.11545e-05
7 *1220:C *377:28 0
8 *1221:C *1209:D_N 0
9 *1221:C *1221:D 7.83587e-05
10 *1222:B1 *1209:D_N 0.000144773
11 *1223:B *1209:D_N 5.52302e-05
12 *1321:D *1221:D 8.00806e-05
13 *240:77 *1221:D 0.000235154
14 *371:37 *377:28 0
15 *376:16 *1209:D_N 9.90367e-05
16 *376:16 *1425:A 0.000142856
17 *376:31 *1209:D_N 7.21879e-05
18 *376:33 *1209:D_N 2.14658e-05
*RES
1 *1321:Q *1221:D 32.8679 
2 *1321:Q *377:28 19.9429 
3 *377:28 *1209:D_N 15.1929 
4 *377:28 *1425:A 10.6571 
*END

*D_NET *378 0.00532565
*CONN
*I *1231:A I *D sky130_fd_sc_hd__and4_2
*I *1209:B I *D sky130_fd_sc_hd__or4b_2
*I *1227:A I *D sky130_fd_sc_hd__and3_2
*I *1421:A I *D sky130_fd_sc_hd__dlygate4sd3_1
*I *1228:A1 I *D sky130_fd_sc_hd__a21o_2
*I *1225:A I *D sky130_fd_sc_hd__or2_2
*I *1322:Q O *D sky130_fd_sc_hd__dfxtp_2
*CAP
1 *1231:A 0.000237063
2 *1209:B 0.000166367
3 *1227:A 0
4 *1421:A 0.000150655
5 *1228:A1 0.000256508
6 *1225:A 7.17032e-05
7 *1322:Q 0.000585209
8 *378:65 0.000604671
9 *378:52 0.000786449
10 *378:10 0.000411487
11 *378:6 0.00023393
12 *1209:B *379:22 2.93922e-05
13 *1209:B *379:26 5.16862e-05
14 *1231:A *379:22 0
15 *378:65 *379:14 4.46186e-06
16 *378:65 *379:22 0
17 *1212:B *1231:A 0
18 *1225:B *1421:A 4.96435e-05
19 *1225:B *378:10 8.16036e-05
20 *1226:A *1225:A 0.000105163
21 *1226:A *1228:A1 9.53373e-05
22 *1228:B1 *1228:A1 9.74665e-05
23 *1228:B1 *378:65 2.84026e-05
24 *1229:A_N *1228:A1 0.000144773
25 *1230:B *378:65 0
26 *1231:D *378:65 1.8461e-05
27 *1323:CLK *378:52 0.000170964
28 *1323:D *1228:A1 7.17136e-05
29 *1323:D *378:52 4.8032e-05
30 *201:28 *1228:A1 5.49544e-05
31 *201:28 *378:52 4.72217e-05
32 *201:30 *1421:A 9.90431e-05
33 *240:51 *1421:A 0.000150632
34 *240:73 *1421:A 9.90431e-05
35 *240:73 *378:65 0.000185118
36 *263:33 *1421:A 0
37 *263:33 *378:10 0
38 *263:39 *1228:A1 3.12916e-05
39 *263:39 *378:10 0
40 *263:61 *1228:A1 0.0001572
*RES
1 *1322:Q *378:6 13.8 
2 *378:6 *378:10 6.44643 
3 *378:10 *1225:A 11.0679 
4 *378:10 *1228:A1 16.1393 
5 *378:6 *1421:A 17.9071 
6 *1322:Q *378:52 25.925 
7 *378:52 *1227:A 9.3 
8 *378:52 *378:65 8.64286 
9 *378:65 *1209:B 15.9786 
10 *378:65 *1231:A 17.6036 
*END

*D_NET *379 0.00223561
*CONN
*I *1426:A I *D sky130_fd_sc_hd__dlygate4sd3_1
*I *1209:C I *D sky130_fd_sc_hd__or4b_2
*I *1231:B I *D sky130_fd_sc_hd__and4_2
*I *1227:B I *D sky130_fd_sc_hd__and3_2
*I *1323:Q O *D sky130_fd_sc_hd__dfxtp_2
*CAP
1 *1426:A 0
2 *1209:C 0
3 *1231:B 0.000134806
4 *1227:B 0.000110841
5 *1323:Q 0.000193884
6 *379:26 0.000458929
7 *379:22 0.000437867
8 *379:14 0.000418468
9 *1231:B *1230:A 7.6997e-05
10 *1231:B *1231:C 6.05161e-06
11 *1209:B *379:22 2.93922e-05
12 *1209:B *379:26 5.16862e-05
13 *1228:B1 *379:14 3.92757e-05
14 *1230:B *1227:B 0.000120083
15 *1231:A *379:22 0
16 *1231:D *1231:B 1.27784e-05
17 *240:73 *379:14 0.000140088
18 *378:65 *379:14 4.46186e-06
19 *378:65 *379:22 0
*RES
1 *1323:Q *379:14 21.8357 
2 *379:14 *379:22 12.8036 
3 *379:22 *379:26 7.91071 
4 *379:26 *1227:B 16.4071 
5 *379:26 *1231:B 15.9786 
6 *379:22 *1209:C 9.3 
7 *379:14 *1426:A 9.3 
*END

*D_NET *380 0.00196944
*CONN
*I *1211:A I *D sky130_fd_sc_hd__or4_2
*I *1231:C I *D sky130_fd_sc_hd__and4_2
*I *1230:A I *D sky130_fd_sc_hd__or2_2
*I *1324:Q O *D sky130_fd_sc_hd__dfxtp_2
*CAP
1 *1211:A 9.59503e-05
2 *1231:C 3.51599e-05
3 *1230:A 0.000156747
4 *1324:Q 0.000230084
5 *380:10 0.000387598
6 *380:8 0.000521726
7 *1217:B1_N *380:8 0.000358841
8 *1230:B *1230:A 5.49544e-05
9 *1231:B *1230:A 7.6997e-05
10 *1231:B *1231:C 6.05161e-06
11 *1231:D *1230:A 3.92757e-05
12 *1231:D *1231:C 6.05161e-06
13 *1232:C *1230:A 0
14 *1324:D *1230:A 0
15 *1324:D *380:10 0
*RES
1 *1324:Q *380:8 17.2107 
2 *380:8 *380:10 3.46429 
3 *380:10 *1230:A 16.8179 
4 *380:10 *1231:C 14.3357 
5 *380:8 *1211:A 15.4429 
*END

*D_NET *381 0.00398627
*CONN
*I *1239:A I *D sky130_fd_sc_hd__and4_2
*I *1211:B I *D sky130_fd_sc_hd__or4_2
*I *1236:A1 I *D sky130_fd_sc_hd__a21o_2
*I *1237:A I *D sky130_fd_sc_hd__and3_2
*I *1233:A I *D sky130_fd_sc_hd__or2_2
*I *1423:A I *D sky130_fd_sc_hd__dlygate4sd3_1
*I *1325:Q O *D sky130_fd_sc_hd__dfxtp_2
*CAP
1 *1239:A 5.11283e-05
2 *1211:B 0.000102292
3 *1236:A1 0.000267218
4 *1237:A 0
5 *1233:A 0.00018835
6 *1423:A 0.000212999
7 *1325:Q 0.000380291
8 *381:65 0.000577394
9 *381:45 0.000297451
10 *381:43 0.000625581
11 *381:28 0.000527015
12 *1211:B *1211:C 0.000104887
13 *1236:A1 *1237:B 7.34285e-06
14 *1239:A *1211:C 3.75959e-05
15 *381:43 *1237:B 5.91503e-05
16 *381:45 *1237:B 2.05152e-05
17 *381:65 *1237:B 7.4057e-06
18 *1217:B1_N *1423:A 6.25636e-05
19 *1236:A2 *1236:A1 0.000182806
20 *1237:C *1236:A1 5.50052e-05
21 *1324:CLK *1423:A 2.97489e-05
22 *1327:D *1211:B 8.67814e-06
23 *1327:D *1239:A 2.92997e-05
24 *1327:D *381:65 5.92518e-05
25 *240:32 *1423:A 3.73361e-05
26 *240:32 *381:28 5.4959e-05
27 *240:47 *1423:A 0
*RES
1 *1325:Q *1423:A 31.0107 
2 *1325:Q *381:28 16.3893 
3 *381:28 *1233:A 16.8 
4 *381:28 *381:43 7.99107 
5 *381:43 *381:45 0.741071 
6 *381:45 *1237:A 9.3 
7 *381:45 *1236:A1 13.1393 
8 *381:43 *381:65 9.77679 
9 *381:65 *1211:B 16.3536 
10 *381:65 *1239:A 15.1393 
*END

*D_NET *382 0.00259918
*CONN
*I *1211:C I *D sky130_fd_sc_hd__or4_2
*I *1239:B I *D sky130_fd_sc_hd__and4_2
*I *1431:A I *D sky130_fd_sc_hd__dlygate4sd3_1
*I *1237:B I *D sky130_fd_sc_hd__and3_2
*I *1326:Q O *D sky130_fd_sc_hd__dfxtp_2
*CAP
1 *1211:C 0.00018966
2 *1239:B 0.000381422
3 *1431:A 0
4 *1237:B 0.000368259
5 *1326:Q 0.000161358
6 *382:23 0.000191762
7 *382:10 0.000529618
8 *1211:B *1211:C 0.000104887
9 *1236:A1 *1237:B 7.34285e-06
10 *1237:C *1237:B 3.54697e-06
11 *1239:A *1211:C 3.75959e-05
12 *1239:D *1239:B 0.000487086
13 *1239:D *382:10 0
14 *1248:C1 *382:10 1.92789e-05
15 *1327:CLK *1237:B 3.02892e-05
16 *1327:D *382:10 0
17 *1363:A *382:10 0
18 *263:113 *382:10 0
19 *381:43 *1237:B 5.91503e-05
20 *381:45 *1237:B 2.05152e-05
21 *381:65 *1237:B 7.4057e-06
*RES
1 *1326:Q *382:10 16.2821 
2 *382:10 *1237:B 19.55 
3 *382:10 *382:23 4.5 
4 *382:23 *1431:A 9.3 
5 *382:23 *1239:B 13.9429 
6 *1239:B *1211:C 31.6714 
*END

*D_NET *383 0.00251388
*CONN
*I *1375:A I *D sky130_fd_sc_hd__dlygate4sd3_1
*I *1239:C I *D sky130_fd_sc_hd__and4_2
*I *1211:D I *D sky130_fd_sc_hd__or4_2
*I *1327:Q O *D sky130_fd_sc_hd__dfxtp_2
*CAP
1 *1375:A 0.000167515
2 *1239:C 0.000175417
3 *1211:D 0.000429335
4 *1327:Q 0.000123404
5 *383:21 0.000423511
6 *383:8 0.000633319
7 *1212:D *1211:D 7.41899e-05
8 *1239:D *1239:C 3.08664e-05
9 *195:20 *1211:D 4.35849e-05
10 *195:20 *383:21 9.11048e-06
11 *213:6 *1239:C 0.000228508
12 *240:24 *1211:D 0.000175117
*RES
1 *1327:Q *383:8 15.1571 
2 *383:8 *1211:D 22.2107 
3 *383:8 *383:21 1.33929 
4 *383:21 *1239:C 17.2107 
5 *383:21 *1375:A 16.6571 
*END

*D_NET *384 0.00849671
*CONN
*I *1081:S0 I *D sky130_fd_sc_hd__mux4_2
*I *1254:A2 I *D sky130_fd_sc_hd__a311o_2
*I *1253:A1 I *D sky130_fd_sc_hd__a21oi_2
*I *1257:A3 I *D sky130_fd_sc_hd__a31o_2
*I *1256:A2 I *D sky130_fd_sc_hd__a31o_2
*I *1079:S0 I *D sky130_fd_sc_hd__mux4_2
*I *1251:B1_N I *D sky130_fd_sc_hd__o21ba_2
*I *1419:A I *D sky130_fd_sc_hd__dlygate4sd3_1
*I *1331:Q O *D sky130_fd_sc_hd__dfxtp_2
*CAP
1 *1081:S0 0.000311332
2 *1254:A2 2.70849e-05
3 *1253:A1 0
4 *1257:A3 0
5 *1256:A2 0.000132323
6 *1079:S0 0.000982972
7 *1251:B1_N 0.000266935
8 *1419:A 0
9 *1331:Q 6.26081e-05
10 *384:64 0.000237711
11 *384:62 0.00014363
12 *384:33 0.000961943
13 *384:29 0.000179341
14 *384:27 0.000416401
15 *384:8 0.000334193
16 *1079:S0 *1082:S 0.000124061
17 *1079:S0 *1257:A1 0.000128144
18 *1079:S0 *386:12 0.00013027
19 *1079:S0 *386:42 0.000599744
20 *1081:S0 *1081:S1 0.000196954
21 *1081:S0 *1409:A 0.000177234
22 *1254:A2 *1254:A1 5.71472e-05
23 *1256:A2 *1257:A2 7.83587e-05
24 *384:29 *1254:A1 8.43535e-06
25 *384:64 *1257:A1 4.73286e-05
26 *1082:A1 *1081:S0 0
27 *1083:A1 *1256:A2 0.000103267
28 *1083:A2 *1256:A2 8.25843e-06
29 *1252:A2 *384:8 0
30 *1252:A2 *384:27 0
31 *1252:B1 *1251:B1_N 7.19508e-05
32 *1253:A2 *384:29 3.47984e-05
33 *1254:A3 *1254:A2 1.97695e-05
34 *1254:A3 *384:29 0.000256992
35 *1254:B1 *1254:A2 3.36025e-05
36 *1254:B1 *384:27 0.000108753
37 *1256:A3 *1256:A2 1.757e-05
38 *1257:B1 *384:64 0.000185124
39 *1258:A *384:33 5.52302e-05
40 *1258:A *384:64 0.000358082
41 *1331:D *1251:B1_N 7.43578e-06
42 *1371:A *384:27 7.40988e-05
43 *3:30 *384:27 1.88038e-05
44 *105:21 *1079:S0 0
45 *105:21 *1251:B1_N 0
46 *105:21 *1256:A2 3.17148e-05
47 *195:50 *1251:B1_N 0
48 *219:35 *1079:S0 0
49 *219:35 *1251:B1_N 0
50 *220:23 *384:29 0.000129515
51 *239:33 *1251:B1_N 0.000110844
52 *248:18 *384:27 0.00011849
53 *248:18 *384:29 0.000554847
54 *248:18 *384:33 0.000142856
55 *273:97 *1251:B1_N 0.000121842
56 *273:105 *384:8 0.000129868
57 *273:105 *384:27 0.000198842
*RES
1 *1331:Q *384:8 15.4429 
2 *384:8 *1419:A 13.8 
3 *384:8 *384:27 11.5179 
4 *384:27 *384:29 5.46429 
5 *384:29 *384:33 5.85714 
6 *384:33 *1251:B1_N 19.5321 
7 *384:33 *1079:S0 19.0446 
8 *384:29 *384:62 0.732143 
9 *384:62 *384:64 4.23214 
10 *384:64 *1256:A2 20.8893 
11 *384:64 *1257:A3 9.3 
12 *384:62 *1253:A1 9.3 
13 *384:27 *1254:A2 10.5679 
14 *1079:S0 *1081:S0 16.1071 
*END

*D_NET *385 0.00368764
*CONN
*I *1398:A I *D sky130_fd_sc_hd__dlygate4sd3_1
*I *1082:S I *D sky130_fd_sc_hd__mux2_1
*I *1256:A1 I *D sky130_fd_sc_hd__a31o_2
*I *1257:A2 I *D sky130_fd_sc_hd__a31o_2
*I *1254:A1 I *D sky130_fd_sc_hd__a311o_2
*I *1332:Q O *D sky130_fd_sc_hd__dfxtp_2
*CAP
1 *1398:A 0
2 *1082:S 0.000241271
3 *1256:A1 0
4 *1257:A2 0.000148259
5 *1254:A1 0.000171387
6 *1332:Q 0
7 *385:25 0.000361491
8 *385:21 0.000694333
9 *385:4 0.000411218
10 *1082:S *386:42 0.00039229
11 *1079:S0 *1082:S 0.000124061
12 *1253:B1 *1254:A1 1.41029e-05
13 *1254:A2 *1254:A1 5.71472e-05
14 *1254:A3 *1254:A1 0.000122091
15 *1255:B *1254:A1 0.000219298
16 *1256:A2 *1257:A2 7.83587e-05
17 *1256:A3 *385:21 0.000181796
18 *1256:A3 *385:25 6.98787e-05
19 *219:27 *1082:S 2.89114e-05
20 *219:35 *1082:S 0.000229233
21 *239:73 *1254:A1 3.2534e-05
22 *244:16 *1082:S 0.000101545
23 *384:29 *1254:A1 8.43535e-06
*RES
1 *1332:Q *385:4 9.3 
2 *385:4 *1254:A1 22.6393 
3 *385:4 *385:21 4.14286 
4 *385:21 *385:25 2.91071 
5 *385:25 *1257:A2 20.2821 
6 *385:25 *1256:A1 9.3 
7 *385:21 *1082:S 26.3714 
8 *385:21 *1398:A 9.3 
*END

*D_NET *386 0.00469836
*CONN
*I *1079:S1 I *D sky130_fd_sc_hd__mux4_2
*I *1081:S1 I *D sky130_fd_sc_hd__mux4_2
*I *1257:A1 I *D sky130_fd_sc_hd__a31o_2
*I *1256:B1 I *D sky130_fd_sc_hd__a31o_2
*I *1333:Q O *D sky130_fd_sc_hd__dfxtp_2
*CAP
1 *1079:S1 0
2 *1081:S1 0.000419193
3 *1257:A1 0.00022778
4 *1256:B1 0
5 *1333:Q 5.5305e-05
6 *386:42 0.000777503
7 *386:12 0.000394092
8 *386:6 0.000579927
9 *1081:S1 *1079:A3 5.49544e-05
10 *1081:S1 *1409:A 0.00020042
11 *1081:S1 *390:12 0.000121254
12 *1081:S1 *394:12 5.49489e-05
13 *1079:S0 *1257:A1 0.000128144
14 *1079:S0 *386:12 0.00013027
15 *1079:S0 *386:42 0.000599744
16 *1081:S0 *1081:S1 0.000196954
17 *1082:A1 *386:42 0.000100823
18 *1082:S *386:42 0.00039229
19 *1083:A1 *1257:A1 0
20 *1257:B1 *1257:A1 9.99853e-05
21 *1272:B *1081:S1 0
22 *18:15 *1081:S1 2.84026e-05
23 *219:10 *1081:S1 0
24 *219:35 *386:42 1.78353e-05
25 *219:67 *386:42 1.18451e-05
26 *244:16 *386:6 3.14163e-05
27 *244:16 *386:12 2.79421e-05
28 *268:79 *1081:S1 0
29 *384:64 *1257:A1 4.73286e-05
*RES
1 *1333:Q *386:6 10.2464 
2 *386:6 *386:12 7.69643 
3 *386:12 *1256:B1 13.8 
4 *386:12 *1257:A1 17.7464 
5 *386:6 *386:42 19.0179 
6 *386:42 *1081:S1 27.9071 
7 *386:42 *1079:S1 9.3 
*END

*D_NET *387 0.00421271
*CONN
*I *1405:A I *D sky130_fd_sc_hd__dlygate4sd3_1
*I *1261:A1 I *D sky130_fd_sc_hd__a31o_2
*I *1263:A1 I *D sky130_fd_sc_hd__a31o_2
*I *1080:B I *D sky130_fd_sc_hd__or2_2
*I *1078:B I *D sky130_fd_sc_hd__nand2_2
*I *1084:B I *D sky130_fd_sc_hd__or2_2
*I *1334:Q O *D sky130_fd_sc_hd__dfxtp_2
*CAP
1 *1405:A 0
2 *1261:A1 0
3 *1263:A1 0.000212276
4 *1080:B 2.9238e-05
5 *1078:B 0
6 *1084:B 0.000132604
7 *1334:Q 4.80078e-05
8 *387:51 0.000463383
9 *387:18 0.000236672
10 *387:12 0.00019903
11 *387:10 0.000545015
12 *387:8 0.000276192
13 *387:10 *1424:A 5.59013e-05
14 *387:12 *1424:A 7.6644e-05
15 *387:18 *1084:A 0
16 *1078:A *387:12 9.25014e-06
17 *1078:A *387:18 0.000223599
18 *1083:B1 *387:10 0
19 *1259:C *387:8 4.48113e-05
20 *1259:C *387:10 6.80593e-05
21 *1261:A2 *1263:A1 1.00914e-05
22 *1261:B1 *387:10 0
23 *1261:B1 *387:51 5.71472e-05
24 *1263:A3 *1263:A1 0.000210075
25 *1265:A2 *1084:B 0.000241431
26 *1265:A2 *387:10 2.24646e-05
27 *1265:A2 *387:12 0.000112323
28 *1265:A2 *387:18 0.000255845
29 *1265:A2 *387:51 5.33005e-05
30 *1265:B1 *1084:B 2.286e-05
31 *92:21 *1080:B 5.33005e-05
32 *196:51 *1263:A1 1.01823e-05
33 *196:51 *387:10 7.79781e-06
34 *196:51 *387:12 1.09026e-05
35 *196:51 *387:51 8.87093e-05
36 *196:55 *1263:A1 1.4024e-05
37 *248:10 *387:8 0.000117189
38 *248:10 *387:10 0.00020455
39 *248:18 *387:10 7.83659e-05
40 *262:10 *387:18 2.14658e-05
41 *273:8 *387:10 0
*RES
1 *1334:Q *387:8 15.4429 
2 *387:8 *387:10 5.89286 
3 *387:10 *387:12 1.64286 
4 *387:12 *387:18 8.30357 
5 *387:18 *1084:B 12.9964 
6 *387:18 *1078:B 9.3 
7 *387:12 *1080:B 14.3357 
8 *387:10 *387:51 7.91071 
9 *387:51 *1263:A1 12.3 
10 *387:51 *1261:A1 9.3 
11 *387:8 *1405:A 13.8 
*END

*D_NET *388 0.00166812
*CONN
*I *1424:A I *D sky130_fd_sc_hd__dlygate4sd3_1
*I *1084:A I *D sky130_fd_sc_hd__or2_2
*I *1335:Q O *D sky130_fd_sc_hd__dfxtp_2
*CAP
1 *1424:A 0.000274937
2 *1084:A 0.000138062
3 *1335:Q 3.92359e-05
4 *388:6 0.000452235
5 *1067:A *1084:A 5.58941e-05
6 *1263:B1 *1424:A 8.36572e-05
7 *1263:B1 *388:6 5.52238e-05
8 *1265:A2 *1084:A 0
9 *92:21 *1424:A 0.000226507
10 *196:51 *1424:A 6.42338e-05
11 *273:10 *1084:A 0.000145594
12 *387:10 *1424:A 5.59013e-05
13 *387:12 *1424:A 7.6644e-05
14 *387:18 *1084:A 0
*RES
1 *1335:Q *388:6 9.83571 
2 *388:6 *1084:A 21.7643 
3 *388:6 *1424:A 22.9429 
*END

*D_NET *389 0.00229829
*CONN
*I *1415:A I *D sky130_fd_sc_hd__dlygate4sd3_1
*I *1079:A0 I *D sky130_fd_sc_hd__mux4_2
*I *1336:Q O *D sky130_fd_sc_hd__dfxtp_2
*CAP
1 *1415:A 0.00017122
2 *1079:A0 0.000466965
3 *1336:Q 8.29479e-05
4 *389:8 0.000721134
5 *1158:A *1415:A 5.52302e-05
6 *1267:A1 *1079:A0 0.00014183
7 *1267:A2 *1079:A0 8.71761e-05
8 *1267:A3 *1079:A0 9.31893e-05
9 *1267:C1 *1079:A0 0.000188586
10 *1297:CLK *1079:A0 3.57315e-05
11 *1297:D *1415:A 0
12 *1336:D *1079:A0 5.52302e-05
13 *268:31 *1079:A0 0.000129515
14 *268:46 *1415:A 6.95299e-05
*RES
1 *1336:Q *389:8 15.1393 
2 *389:8 *1079:A0 23.3714 
3 *389:8 *1415:A 17.1929 
*END

*D_NET *390 0.00137384
*CONN
*I *1416:A I *D sky130_fd_sc_hd__dlygate4sd3_1
*I *1079:A1 I *D sky130_fd_sc_hd__mux4_2
*I *1337:Q O *D sky130_fd_sc_hd__dfxtp_2
*CAP
1 *1416:A 0
2 *1079:A1 0.000131101
3 *1337:Q 0.000172073
4 *390:12 0.000303174
5 *1079:A1 *1409:A 0
6 *1081:S1 *390:12 0.000121254
7 *1082:A1 *1079:A1 0.000111522
8 *1267:A2 *390:12 0.000182723
9 *268:79 *390:12 0.000351992
*RES
1 *1337:Q *390:12 23.3536 
2 *390:12 *1079:A1 21.1571 
3 *390:12 *1416:A 9.3 
*END

*D_NET *391 0.00348376
*CONN
*I *1417:A I *D sky130_fd_sc_hd__dlygate4sd3_1
*I *1081:A0 I *D sky130_fd_sc_hd__mux4_2
*I *1338:Q O *D sky130_fd_sc_hd__dfxtp_2
*CAP
1 *1417:A 0.00042277
2 *1081:A0 0.000406929
3 *1338:Q 0
4 *391:6 0.000829699
5 *1081:A0 *1081:A1 9.87617e-05
6 rx_data[1] *1417:A 0.000154077
7 *1266:B *1081:A0 0.000157081
8 *1267:A1 *1081:A0 0.000424203
9 *1267:A1 *1417:A 6.81083e-05
10 *1270:A *1081:A0 5.47488e-05
11 *1271:A1 *1081:A0 0
12 *1271:A1 *1417:A 3.06882e-05
13 *1271:B1 *1081:A0 0.000286179
14 *1437:A *1417:A 0.000183726
15 *3:30 *1081:A0 9.02011e-05
16 *18:15 *1081:A0 0.000223283
17 *18:15 *1417:A 0
18 *219:71 *1081:A0 5.33005e-05
*RES
1 *1338:Q *391:6 13.8 
2 *391:6 *1081:A0 25.4071 
3 *391:6 *1417:A 22.2643 
*END

*D_NET *392 0.00152057
*CONN
*I *1412:A I *D sky130_fd_sc_hd__dlygate4sd3_1
*I *1081:A1 I *D sky130_fd_sc_hd__mux4_2
*I *1339:Q O *D sky130_fd_sc_hd__dfxtp_2
*CAP
1 *1412:A 0.000148966
2 *1081:A1 0.000320796
3 *1339:Q 4.42654e-05
4 *392:8 0.000514027
5 *1081:A0 *1081:A1 9.87617e-05
6 *1273:B1 *1081:A1 0
7 *1281:A1 *1412:A 0
8 *1339:D *1412:A 0
9 *18:15 *1081:A1 0.000145892
10 *18:15 *1412:A 8.73442e-05
11 *245:57 *392:8 1.40415e-05
12 *268:79 *1081:A1 0.000146474
*RES
1 *1339:Q *392:8 14.3357 
2 *392:8 *1081:A1 20.4607 
3 *392:8 *1412:A 16.9607 
*END

*D_NET *393 0.00149762
*CONN
*I *1079:A2 I *D sky130_fd_sc_hd__mux4_2
*I *1410:A I *D sky130_fd_sc_hd__dlygate4sd3_1
*I *1340:Q O *D sky130_fd_sc_hd__dfxtp_2
*CAP
1 *1079:A2 0.000374707
2 *1410:A 0.000608612
3 *1340:Q 0.000233905
4 *1079:A2 *394:12 0.000141734
5 *1274:A *1410:A 1.07719e-05
6 *1276:B *1079:A2 5.49544e-05
7 *1277:B1 *1079:A2 1.57931e-05
8 *1277:B1 *1410:A 5.71472e-05
*RES
1 *1340:Q *1410:A 22.4393 
2 *1410:A *1079:A2 23.5643 
*END

*D_NET *394 0.00122603
*CONN
*I *1079:A3 I *D sky130_fd_sc_hd__mux4_2
*I *1409:A I *D sky130_fd_sc_hd__dlygate4sd3_1
*I *1341:Q O *D sky130_fd_sc_hd__dfxtp_2
*CAP
1 *1079:A3 2.40831e-05
2 *1409:A 7.73357e-05
3 *1341:Q 0.000171703
4 *394:12 0.000273122
5 *1079:A1 *1409:A 0
6 *1079:A2 *394:12 0.000141734
7 *1081:S0 *1409:A 0.000177234
8 *1081:S1 *1079:A3 5.49544e-05
9 *1081:S1 *1409:A 0.00020042
10 *1081:S1 *394:12 5.49489e-05
11 *219:12 *394:12 4.13122e-06
12 *219:16 *394:12 4.6361e-05
*RES
1 *1341:Q *394:12 21.8179 
2 *394:12 *1409:A 21.1571 
3 *394:12 *1079:A3 9.83571 
*END

*D_NET *395 0.00183684
*CONN
*I *1081:A2 I *D sky130_fd_sc_hd__mux4_2
*I *1408:A I *D sky130_fd_sc_hd__dlygate4sd3_1
*I *1342:Q O *D sky130_fd_sc_hd__dfxtp_2
*CAP
1 *1081:A2 0.00017773
2 *1408:A 3.03746e-05
3 *1342:Q 6.91629e-05
4 *395:10 0.000277268
5 *1081:A2 *1081:A3 0.000320884
6 *1081:A2 *1411:A 9.90367e-05
7 *1279:B1 *1081:A2 0.000125531
8 *1279:B1 *1408:A 5.62995e-05
9 *1279:C1 *1081:A2 0.000222666
10 *1279:C1 *1408:A 0.000134773
11 *1281:A3 *395:10 5.01213e-05
12 *18:15 *1081:A2 0.000272993
13 *102:92 *395:10 0
*RES
1 *1342:Q *395:10 19.6393 
2 *395:10 *1408:A 10.675 
3 *395:10 *1081:A2 15.5857 
*END

*D_NET *396 0.00163322
*CONN
*I *1081:A3 I *D sky130_fd_sc_hd__mux4_2
*I *1411:A I *D sky130_fd_sc_hd__dlygate4sd3_1
*I *1343:Q O *D sky130_fd_sc_hd__dfxtp_2
*CAP
1 *1081:A3 0.000148537
2 *1411:A 1.37855e-05
3 *1343:Q 0.000157667
4 *396:10 0.000319989
5 *1081:A2 *1081:A3 0.000320884
6 *1081:A2 *1411:A 9.90367e-05
7 *1272:B *396:10 0
8 *1278:A *1081:A3 1.21258e-05
9 *1279:B1 *1081:A3 8.57023e-05
10 *1279:B1 *1411:A 0.00010096
11 *1280:A *1081:A3 1.88868e-05
12 *1281:C1 *396:10 9.01237e-05
13 *1434:A *396:10 5.0725e-05
14 *18:15 *1081:A3 7.09928e-05
15 *18:15 *396:10 0.00012501
16 *272:57 *396:10 1.87955e-05
*RES
1 *1343:Q *396:10 22.3714 
2 *396:10 *1411:A 10.2464 
3 *396:10 *1081:A3 14.0857 
*END
