*SPEF "ieee 1481-1999"
*DESIGN "uart_top"
*DATE "10:08:07 Thursday August 20, 2026"
*VENDOR "The OpenROAD Project"
*PROGRAM "OpenROAD"
*VERSION "dcf36133a369abc8f3c5e5738cd4d82e4903c0e0"
*DESIGN_FLOW "NAME_SCOPE LOCAL" "PIN_CAP NONE"
*DIVIDER /
*DELIMITER :
*BUS_DELIMITER []
*T_UNIT 1 NS
*C_UNIT 1 PF
*R_UNIT 1 OHM
*L_UNIT 1 HENRY

*NAME_MAP
*3 clk
*4 reset
*5 rx
*6 rx_data[0]
*7 rx_data[1]
*8 rx_data[2]
*9 rx_data[3]
*10 rx_data[4]
*11 rx_data[5]
*12 rx_data[6]
*13 rx_data[7]
*14 rx_valid
*15 tx
*16 tx_busy
*17 tx_data[0]
*18 tx_data[1]
*19 tx_data[2]
*20 tx_data[3]
*21 tx_data[4]
*22 tx_data[5]
*23 tx_data[6]
*24 tx_data[7]
*25 tx_start
*26 _000_
*27 _001_
*28 _002_
*29 _003_
*30 _004_
*31 _005_
*32 _006_
*33 _007_
*34 _008_
*35 _009_
*36 _010_
*37 _011_
*38 _012_
*39 _013_
*40 _014_
*41 _015_
*42 _016_
*43 _017_
*44 _018_
*45 _019_
*46 _020_
*47 _021_
*48 _022_
*49 _023_
*50 _024_
*51 _025_
*52 _026_
*53 _027_
*54 _028_
*55 _029_
*56 _030_
*57 _031_
*58 _032_
*59 _033_
*60 _034_
*61 _035_
*62 _036_
*63 _037_
*64 _038_
*65 _039_
*66 _040_
*67 _041_
*68 _042_
*69 _043_
*70 _044_
*71 _045_
*72 _046_
*73 _047_
*74 _048_
*75 _049_
*76 _050_
*77 _051_
*78 _052_
*79 _053_
*80 _054_
*81 _055_
*82 _056_
*83 _057_
*84 _058_
*85 _059_
*86 _060_
*87 _061_
*88 _062_
*89 _063_
*90 _064_
*91 _065_
*92 _066_
*93 _067_
*94 _068_
*95 _069_
*96 _070_
*97 _071_
*98 _072_
*99 _073_
*100 _074_
*101 _075_
*102 _076_
*103 _077_
*104 _078_
*105 _079_
*106 _080_
*107 _081_
*108 _082_
*109 _083_
*110 _084_
*111 _085_
*112 _086_
*113 _087_
*114 _088_
*115 _089_
*116 _090_
*117 _091_
*118 _092_
*119 _093_
*120 _094_
*121 _095_
*122 _096_
*123 _097_
*124 _098_
*125 _099_
*126 _100_
*127 _101_
*128 _102_
*129 _103_
*130 _104_
*131 _105_
*132 _106_
*133 _107_
*134 _108_
*135 _109_
*136 _110_
*137 _111_
*138 _112_
*139 _113_
*140 _114_
*141 _115_
*142 _116_
*143 _117_
*144 _118_
*145 _119_
*146 _120_
*147 _121_
*148 _122_
*149 _123_
*150 _124_
*151 _125_
*152 _126_
*153 _127_
*154 _128_
*155 _129_
*156 _130_
*157 _131_
*158 _132_
*159 _133_
*160 _134_
*161 _135_
*162 _136_
*163 _137_
*164 _138_
*165 _139_
*166 _140_
*167 _141_
*168 _142_
*169 _143_
*170 _144_
*171 _145_
*172 _146_
*173 _147_
*174 _148_
*175 _149_
*176 _150_
*177 _151_
*178 _152_
*179 _153_
*180 _154_
*181 _155_
*182 _156_
*183 _157_
*184 _158_
*185 _159_
*186 _160_
*187 _161_
*188 _162_
*189 _163_
*190 _164_
*191 _165_
*192 _166_
*193 _167_
*194 _168_
*195 _169_
*196 _170_
*197 _171_
*198 _172_
*199 _173_
*200 _174_
*201 _175_
*202 _176_
*203 _177_
*204 _178_
*205 _179_
*206 _180_
*207 _181_
*208 _182_
*209 _183_
*210 _184_
*211 _185_
*212 _186_
*213 _187_
*214 _188_
*215 _189_
*216 _190_
*217 _191_
*218 _192_
*219 _193_
*220 _194_
*221 _195_
*222 _196_
*223 _197_
*224 _198_
*225 _199_
*226 _200_
*227 _201_
*228 _202_
*229 _203_
*230 _204_
*231 _205_
*232 _206_
*233 _207_
*234 _208_
*235 _209_
*236 _210_
*237 _211_
*238 _212_
*239 clknet_0_clk
*240 clknet_3_0__leaf_clk
*241 clknet_3_1__leaf_clk
*242 clknet_3_2__leaf_clk
*243 clknet_3_3__leaf_clk
*244 clknet_3_4__leaf_clk
*245 clknet_3_5__leaf_clk
*246 clknet_3_6__leaf_clk
*247 clknet_3_7__leaf_clk
*248 net1
*249 net10
*250 net11
*251 net12
*252 net13
*253 net14
*254 net15
*255 net16
*256 net17
*257 net18
*258 net19
*259 net2
*260 net20
*261 net21
*262 net22
*263 net23
*264 net24
*265 net25
*266 net26
*267 net27
*268 net28
*269 net29
*270 net3
*271 net30
*272 net31
*273 net32
*274 net33
*275 net34
*276 net35
*277 net36
*278 net37
*279 net38
*280 net39
*281 net4
*282 net40
*283 net41
*284 net42
*285 net43
*286 net44
*287 net45
*288 net46
*289 net47
*290 net48
*291 net49
*292 net5
*293 net50
*294 net51
*295 net52
*296 net53
*297 net54
*298 net55
*299 net56
*300 net57
*301 net58
*302 net59
*303 net6
*304 net60
*305 net61
*306 net62
*307 net63
*308 net64
*309 net65
*310 net66
*311 net67
*312 net68
*313 net69
*314 net7
*315 net70
*316 net71
*317 net72
*318 net73
*319 net74
*320 net75
*321 net76
*322 net77
*323 net78
*324 net79
*325 net8
*326 net80
*327 net81
*328 net82
*329 net83
*330 net84
*331 net85
*332 net86
*333 net87
*334 net88
*335 net89
*336 net9
*337 net90
*338 net91
*339 net92
*340 rx_inst\.baud_counter\[0\]
*341 rx_inst\.baud_counter\[10\]
*342 rx_inst\.baud_counter\[11\]
*343 rx_inst\.baud_counter\[12\]
*344 rx_inst\.baud_counter\[1\]
*345 rx_inst\.baud_counter\[2\]
*346 rx_inst\.baud_counter\[3\]
*347 rx_inst\.baud_counter\[4\]
*348 rx_inst\.baud_counter\[5\]
*349 rx_inst\.baud_counter\[6\]
*350 rx_inst\.baud_counter\[7\]
*351 rx_inst\.baud_counter\[8\]
*352 rx_inst\.baud_counter\[9\]
*353 rx_inst\.bit_counter\[0\]
*354 rx_inst\.bit_counter\[1\]
*355 rx_inst\.bit_counter\[2\]
*356 rx_inst\.rx_reg\[0\]
*357 rx_inst\.rx_reg\[1\]
*358 rx_inst\.rx_reg\[2\]
*359 rx_inst\.rx_reg\[3\]
*360 rx_inst\.rx_reg\[4\]
*361 rx_inst\.rx_reg\[5\]
*362 rx_inst\.rx_reg\[6\]
*363 rx_inst\.rx_reg\[7\]
*364 rx_inst\.rx_sync1
*365 rx_inst\.rx_sync2
*366 rx_inst\.rx_syncd
*367 rx_inst\.state\[0\]
*368 rx_inst\.state\[1\]
*369 rx_inst\.state\[2\]
*370 rx_inst\.state\[3\]
*371 tx_inst\.baud_counter\[0\]
*372 tx_inst\.baud_counter\[10\]
*373 tx_inst\.baud_counter\[11\]
*374 tx_inst\.baud_counter\[12\]
*375 tx_inst\.baud_counter\[1\]
*376 tx_inst\.baud_counter\[2\]
*377 tx_inst\.baud_counter\[3\]
*378 tx_inst\.baud_counter\[4\]
*379 tx_inst\.baud_counter\[5\]
*380 tx_inst\.baud_counter\[6\]
*381 tx_inst\.baud_counter\[7\]
*382 tx_inst\.baud_counter\[8\]
*383 tx_inst\.baud_counter\[9\]
*384 tx_inst\.bit_counter\[0\]
*385 tx_inst\.bit_counter\[1\]
*386 tx_inst\.bit_counter\[2\]
*387 tx_inst\.state\[0\]
*388 tx_inst\.state\[1\]
*389 tx_inst\.tx_reg\[0\]
*390 tx_inst\.tx_reg\[1\]
*391 tx_inst\.tx_reg\[2\]
*392 tx_inst\.tx_reg\[3\]
*393 tx_inst\.tx_reg\[4\]
*394 tx_inst\.tx_reg\[5\]
*395 tx_inst\.tx_reg\[6\]
*396 tx_inst\.tx_reg\[7\]
*397 FILLER_0_100
*398 FILLER_0_103
*399 FILLER_0_106
*400 FILLER_0_109
*401 FILLER_0_113
*402 FILLER_0_116
*403 FILLER_0_119
*404 FILLER_0_141
*405 FILLER_0_150
*406 FILLER_0_153
*407 FILLER_0_156
*408 FILLER_0_159
*409 FILLER_0_162
*410 FILLER_0_165
*411 FILLER_0_169
*412 FILLER_0_18
*413 FILLER_0_3
*414 FILLER_0_36
*415 FILLER_0_39
*416 FILLER_0_42
*417 FILLER_0_52
*418 FILLER_0_55
*419 FILLER_0_57
*420 FILLER_0_6
*421 FILLER_0_60
*422 FILLER_0_67
*423 FILLER_0_77
*424 FILLER_0_80
*425 FILLER_0_83
*426 FILLER_0_85
*427 FILLER_0_94
*428 FILLER_0_97
*429 FILLER_10_13
*430 FILLER_10_135
*431 FILLER_10_138
*432 FILLER_10_141
*433 FILLER_10_144
*434 FILLER_10_147
*435 FILLER_10_150
*436 FILLER_10_157
*437 FILLER_10_16
*438 FILLER_10_160
*439 FILLER_10_163
*440 FILLER_10_166
*441 FILLER_10_169
*442 FILLER_10_19
*443 FILLER_10_22
*444 FILLER_10_25
*445 FILLER_10_3
*446 FILLER_10_37
*447 FILLER_10_52
*448 FILLER_10_55
*449 FILLER_10_64
*450 FILLER_10_83
*451 FILLER_10_85
*452 FILLER_10_88
*453 FILLER_10_91
*454 FILLER_10_94
*455 FILLER_10_97
*456 FILLER_11_121
*457 FILLER_11_13
*458 FILLER_11_131
*459 FILLER_11_134
*460 FILLER_11_137
*461 FILLER_11_140
*462 FILLER_11_151
*463 FILLER_11_158
*464 FILLER_11_161
*465 FILLER_11_164
*466 FILLER_11_167
*467 FILLER_11_169
*468 FILLER_11_62
*469 FILLER_11_83
*470 FILLER_11_86
*471 FILLER_12_114
*472 FILLER_12_117
*473 FILLER_12_120
*474 FILLER_12_123
*475 FILLER_12_126
*476 FILLER_12_132
*477 FILLER_12_135
*478 FILLER_12_138
*479 FILLER_12_141
*480 FILLER_12_22
*481 FILLER_12_25
*482 FILLER_12_29
*483 FILLER_12_3
*484 FILLER_12_32
*485 FILLER_12_79
*486 FILLER_12_82
*487 FILLER_12_85
*488 FILLER_13_108
*489 FILLER_13_11
*490 FILLER_13_14
*491 FILLER_13_141
*492 FILLER_13_144
*493 FILLER_13_147
*494 FILLER_13_166
*495 FILLER_13_169
*496 FILLER_13_17
*497 FILLER_13_20
*498 FILLER_13_23
*499 FILLER_13_34
*500 FILLER_13_52
*501 FILLER_13_55
*502 FILLER_13_57
*503 FILLER_13_60
*504 FILLER_13_63
*505 FILLER_14_125
*506 FILLER_14_128
*507 FILLER_14_13
*508 FILLER_14_131
*509 FILLER_14_134
*510 FILLER_14_137
*511 FILLER_14_141
*512 FILLER_14_144
*513 FILLER_14_147
*514 FILLER_14_150
*515 FILLER_14_153
*516 FILLER_14_16
*517 FILLER_14_22
*518 FILLER_14_29
*519 FILLER_14_3
*520 FILLER_14_35
*521 FILLER_14_44
*522 FILLER_14_47
*523 FILLER_14_65
*524 FILLER_14_85
*525 FILLER_15_107
*526 FILLER_15_110
*527 FILLER_15_113
*528 FILLER_15_123
*529 FILLER_15_126
*530 FILLER_15_129
*531 FILLER_15_132
*532 FILLER_15_135
*533 FILLER_15_138
*534 FILLER_15_141
*535 FILLER_15_150
*536 FILLER_15_159
*537 FILLER_15_162
*538 FILLER_15_165
*539 FILLER_15_169
*540 FILLER_15_23
*541 FILLER_15_55
*542 FILLER_15_65
*543 FILLER_15_76
*544 FILLER_16_111
*545 FILLER_16_114
*546 FILLER_16_121
*547 FILLER_16_124
*548 FILLER_16_3
*549 FILLER_16_34
*550 FILLER_16_46
*551 FILLER_16_49
*552 FILLER_16_52
*553 FILLER_16_55
*554 FILLER_16_58
*555 FILLER_16_61
*556 FILLER_16_64
*557 FILLER_16_73
*558 FILLER_16_76
*559 FILLER_16_79
*560 FILLER_16_82
*561 FILLER_16_85
*562 FILLER_16_88
*563 FILLER_16_91
*564 FILLER_17_108
*565 FILLER_17_111
*566 FILLER_17_127
*567 FILLER_17_130
*568 FILLER_17_14
*569 FILLER_17_140
*570 FILLER_17_147
*571 FILLER_17_150
*572 FILLER_17_169
*573 FILLER_17_25
*574 FILLER_17_28
*575 FILLER_17_3
*576 FILLER_17_31
*577 FILLER_17_44
*578 FILLER_17_54
*579 FILLER_17_66
*580 FILLER_17_69
*581 FILLER_17_72
*582 FILLER_18_103
*583 FILLER_18_106
*584 FILLER_18_109
*585 FILLER_18_112
*586 FILLER_18_119
*587 FILLER_18_122
*588 FILLER_18_141
*589 FILLER_18_150
*590 FILLER_18_153
*591 FILLER_18_17
*592 FILLER_18_26
*593 FILLER_18_3
*594 FILLER_18_36
*595 FILLER_18_45
*596 FILLER_18_6
*597 FILLER_18_71
*598 FILLER_18_74
*599 FILLER_18_93
*600 FILLER_19_102
*601 FILLER_19_105
*602 FILLER_19_113
*603 FILLER_19_143
*604 FILLER_19_146
*605 FILLER_19_164
*606 FILLER_19_167
*607 FILLER_19_169
*608 FILLER_19_3
*609 FILLER_19_50
*610 FILLER_19_57
*611 FILLER_19_6
*612 FILLER_19_93
*613 FILLER_19_96
*614 FILLER_19_99
*615 FILLER_1_101
*616 FILLER_1_111
*617 FILLER_1_113
*618 FILLER_1_116
*619 FILLER_1_142
*620 FILLER_1_145
*621 FILLER_1_163
*622 FILLER_1_166
*623 FILLER_1_169
*624 FILLER_1_21
*625 FILLER_1_24
*626 FILLER_1_3
*627 FILLER_1_43
*628 FILLER_1_46
*629 FILLER_1_81
*630 FILLER_20_106
*631 FILLER_20_121
*632 FILLER_20_129
*633 FILLER_20_132
*634 FILLER_20_135
*635 FILLER_20_138
*636 FILLER_20_149
*637 FILLER_20_152
*638 FILLER_20_19
*639 FILLER_20_22
*640 FILLER_20_25
*641 FILLER_20_29
*642 FILLER_20_32
*643 FILLER_20_35
*644 FILLER_20_38
*645 FILLER_20_60
*646 FILLER_20_63
*647 FILLER_20_66
*648 FILLER_20_69
*649 FILLER_20_72
*650 FILLER_20_82
*651 FILLER_20_90
*652 FILLER_20_93
*653 FILLER_20_96
*654 FILLER_21_105
*655 FILLER_21_113
*656 FILLER_21_120
*657 FILLER_21_129
*658 FILLER_21_13
*659 FILLER_21_132
*660 FILLER_21_135
*661 FILLER_21_138
*662 FILLER_21_141
*663 FILLER_21_144
*664 FILLER_21_163
*665 FILLER_21_166
*666 FILLER_21_169
*667 FILLER_21_3
*668 FILLER_21_36
*669 FILLER_21_39
*670 FILLER_21_51
*671 FILLER_21_54
*672 FILLER_21_74
*673 FILLER_21_84
*674 FILLER_21_87
*675 FILLER_22_111
*676 FILLER_22_130
*677 FILLER_22_149
*678 FILLER_22_152
*679 FILLER_22_34
*680 FILLER_22_53
*681 FILLER_22_56
*682 FILLER_22_66
*683 FILLER_22_85
*684 FILLER_23_101
*685 FILLER_23_104
*686 FILLER_23_107
*687 FILLER_23_110
*688 FILLER_23_113
*689 FILLER_23_144
*690 FILLER_23_169
*691 FILLER_23_41
*692 FILLER_23_44
*693 FILLER_23_53
*694 FILLER_23_63
*695 FILLER_23_66
*696 FILLER_23_75
*697 FILLER_23_98
*698 FILLER_24_111
*699 FILLER_24_114
*700 FILLER_24_122
*701 FILLER_24_125
*702 FILLER_24_128
*703 FILLER_24_131
*704 FILLER_24_141
*705 FILLER_24_144
*706 FILLER_24_162
*707 FILLER_24_19
*708 FILLER_24_26
*709 FILLER_24_34
*710 FILLER_24_73
*711 FILLER_25_108
*712 FILLER_25_111
*713 FILLER_25_113
*714 FILLER_25_116
*715 FILLER_25_12
*716 FILLER_25_136
*717 FILLER_25_163
*718 FILLER_25_166
*719 FILLER_25_169
*720 FILLER_25_49
*721 FILLER_25_57
*722 FILLER_26_141
*723 FILLER_26_152
*724 FILLER_26_46
*725 FILLER_26_66
*726 FILLER_26_90
*727 FILLER_26_93
*728 FILLER_26_96
*729 FILLER_26_99
*730 FILLER_27_111
*731 FILLER_27_121
*732 FILLER_27_124
*733 FILLER_27_166
*734 FILLER_27_169
*735 FILLER_27_50
*736 FILLER_27_74
*737 FILLER_27_93
*738 FILLER_27_96
*739 FILLER_28_103
*740 FILLER_28_137
*741 FILLER_28_165
*742 FILLER_28_169
*743 FILLER_28_24
*744 FILLER_28_27
*745 FILLER_28_29
*746 FILLER_28_3
*747 FILLER_28_57
*748 FILLER_28_6
*749 FILLER_28_85
*750 FILLER_2_100
*751 FILLER_2_119
*752 FILLER_2_122
*753 FILLER_2_125
*754 FILLER_2_128
*755 FILLER_2_131
*756 FILLER_2_14
*757 FILLER_2_141
*758 FILLER_2_151
*759 FILLER_2_154
*760 FILLER_2_157
*761 FILLER_2_160
*762 FILLER_2_163
*763 FILLER_2_166
*764 FILLER_2_169
*765 FILLER_2_23
*766 FILLER_2_26
*767 FILLER_2_3
*768 FILLER_2_35
*769 FILLER_2_45
*770 FILLER_2_6
*771 FILLER_2_63
*772 FILLER_2_66
*773 FILLER_2_85
*774 FILLER_2_88
*775 FILLER_2_91
*776 FILLER_3_101
*777 FILLER_3_104
*778 FILLER_3_12
*779 FILLER_3_121
*780 FILLER_3_124
*781 FILLER_3_132
*782 FILLER_3_135
*783 FILLER_3_15
*784 FILLER_3_151
*785 FILLER_3_169
*786 FILLER_3_18
*787 FILLER_3_3
*788 FILLER_3_33
*789 FILLER_3_36
*790 FILLER_3_39
*791 FILLER_3_57
*792 FILLER_3_6
*793 FILLER_3_66
*794 FILLER_3_75
*795 FILLER_3_78
*796 FILLER_3_87
*797 FILLER_3_9
*798 FILLER_3_90
*799 FILLER_3_93
*800 FILLER_4_104
*801 FILLER_4_122
*802 FILLER_4_139
*803 FILLER_4_149
*804 FILLER_4_152
*805 FILLER_4_26
*806 FILLER_4_3
*807 FILLER_4_37
*808 FILLER_4_40
*809 FILLER_4_43
*810 FILLER_4_46
*811 FILLER_4_6
*812 FILLER_4_79
*813 FILLER_4_82
*814 FILLER_4_85
*815 FILLER_4_88
*816 FILLER_5_108
*817 FILLER_5_111
*818 FILLER_5_133
*819 FILLER_5_152
*820 FILLER_5_155
*821 FILLER_5_163
*822 FILLER_5_166
*823 FILLER_5_169
*824 FILLER_5_22
*825 FILLER_5_3
*826 FILLER_5_42
*827 FILLER_5_45
*828 FILLER_5_74
*829 FILLER_5_77
*830 FILLER_5_80
*831 FILLER_6_100
*832 FILLER_6_107
*833 FILLER_6_110
*834 FILLER_6_119
*835 FILLER_6_128
*836 FILLER_6_131
*837 FILLER_6_134
*838 FILLER_6_137
*839 FILLER_6_14
*840 FILLER_6_141
*841 FILLER_6_144
*842 FILLER_6_150
*843 FILLER_6_153
*844 FILLER_6_156
*845 FILLER_6_159
*846 FILLER_6_162
*847 FILLER_6_165
*848 FILLER_6_168
*849 FILLER_6_17
*850 FILLER_6_20
*851 FILLER_6_23
*852 FILLER_6_26
*853 FILLER_6_3
*854 FILLER_6_36
*855 FILLER_6_39
*856 FILLER_6_42
*857 FILLER_6_6
*858 FILLER_6_69
*859 FILLER_6_72
*860 FILLER_6_80
*861 FILLER_6_83
*862 FILLER_6_97
*863 FILLER_7_10
*864 FILLER_7_109
*865 FILLER_7_129
*866 FILLER_7_132
*867 FILLER_7_141
*868 FILLER_7_144
*869 FILLER_7_147
*870 FILLER_7_150
*871 FILLER_7_160
*872 FILLER_7_163
*873 FILLER_7_166
*874 FILLER_7_169
*875 FILLER_7_17
*876 FILLER_7_20
*877 FILLER_7_39
*878 FILLER_8_107
*879 FILLER_8_110
*880 FILLER_8_113
*881 FILLER_8_124
*882 FILLER_8_127
*883 FILLER_8_139
*884 FILLER_8_141
*885 FILLER_8_148
*886 FILLER_8_21
*887 FILLER_8_24
*888 FILLER_8_27
*889 FILLER_8_3
*890 FILLER_8_37
*891 FILLER_8_40
*892 FILLER_8_43
*893 FILLER_8_70
*894 FILLER_8_83
*895 FILLER_9_102
*896 FILLER_9_138
*897 FILLER_9_149
*898 FILLER_9_156
*899 FILLER_9_163
*900 FILLER_9_166
*901 FILLER_9_169
*902 FILLER_9_21
*903 FILLER_9_3
*904 FILLER_9_32
*905 FILLER_9_42
*906 FILLER_9_45
*907 FILLER_9_55
*908 FILLER_9_68
*909 FILLER_9_71
*910 FILLER_9_74
*911 FILLER_9_77
*912 FILLER_9_84
*913 FILLER_9_93
*914 FILLER_9_96
*915 FILLER_9_99
*916 PHY_EDGE_ROW_0_Left_29
*917 PHY_EDGE_ROW_0_Right_0
*918 PHY_EDGE_ROW_10_Left_39
*919 PHY_EDGE_ROW_10_Right_10
*920 PHY_EDGE_ROW_11_Left_40
*921 PHY_EDGE_ROW_11_Right_11
*922 PHY_EDGE_ROW_12_Left_41
*923 PHY_EDGE_ROW_12_Right_12
*924 PHY_EDGE_ROW_13_Left_42
*925 PHY_EDGE_ROW_13_Right_13
*926 PHY_EDGE_ROW_14_Left_43
*927 PHY_EDGE_ROW_14_Right_14
*928 PHY_EDGE_ROW_15_Left_44
*929 PHY_EDGE_ROW_15_Right_15
*930 PHY_EDGE_ROW_16_Left_45
*931 PHY_EDGE_ROW_16_Right_16
*932 PHY_EDGE_ROW_17_Left_46
*933 PHY_EDGE_ROW_17_Right_17
*934 PHY_EDGE_ROW_18_Left_47
*935 PHY_EDGE_ROW_18_Right_18
*936 PHY_EDGE_ROW_19_Left_48
*937 PHY_EDGE_ROW_19_Right_19
*938 PHY_EDGE_ROW_1_Left_30
*939 PHY_EDGE_ROW_1_Right_1
*940 PHY_EDGE_ROW_20_Left_49
*941 PHY_EDGE_ROW_20_Right_20
*942 PHY_EDGE_ROW_21_Left_50
*943 PHY_EDGE_ROW_21_Right_21
*944 PHY_EDGE_ROW_22_Left_51
*945 PHY_EDGE_ROW_22_Right_22
*946 PHY_EDGE_ROW_23_Left_52
*947 PHY_EDGE_ROW_23_Right_23
*948 PHY_EDGE_ROW_24_Left_53
*949 PHY_EDGE_ROW_24_Right_24
*950 PHY_EDGE_ROW_25_Left_54
*951 PHY_EDGE_ROW_25_Right_25
*952 PHY_EDGE_ROW_26_Left_55
*953 PHY_EDGE_ROW_26_Right_26
*954 PHY_EDGE_ROW_27_Left_56
*955 PHY_EDGE_ROW_27_Right_27
*956 PHY_EDGE_ROW_28_Left_57
*957 PHY_EDGE_ROW_28_Right_28
*958 PHY_EDGE_ROW_2_Left_31
*959 PHY_EDGE_ROW_2_Right_2
*960 PHY_EDGE_ROW_3_Left_32
*961 PHY_EDGE_ROW_3_Right_3
*962 PHY_EDGE_ROW_4_Left_33
*963 PHY_EDGE_ROW_4_Right_4
*964 PHY_EDGE_ROW_5_Left_34
*965 PHY_EDGE_ROW_5_Right_5
*966 PHY_EDGE_ROW_6_Left_35
*967 PHY_EDGE_ROW_6_Right_6
*968 PHY_EDGE_ROW_7_Left_36
*969 PHY_EDGE_ROW_7_Right_7
*970 PHY_EDGE_ROW_8_Left_37
*971 PHY_EDGE_ROW_8_Right_8
*972 PHY_EDGE_ROW_9_Left_38
*973 PHY_EDGE_ROW_9_Right_9
*974 TAP_TAPCELL_ROW_0_58
*975 TAP_TAPCELL_ROW_0_59
*976 TAP_TAPCELL_ROW_0_60
*977 TAP_TAPCELL_ROW_0_61
*978 TAP_TAPCELL_ROW_0_62
*979 TAP_TAPCELL_ROW_0_63
*980 TAP_TAPCELL_ROW_10_91
*981 TAP_TAPCELL_ROW_10_92
*982 TAP_TAPCELL_ROW_10_93
*983 TAP_TAPCELL_ROW_11_94
*984 TAP_TAPCELL_ROW_11_95
*985 TAP_TAPCELL_ROW_11_96
*986 TAP_TAPCELL_ROW_12_97
*987 TAP_TAPCELL_ROW_12_98
*988 TAP_TAPCELL_ROW_12_99
*989 TAP_TAPCELL_ROW_13_100
*990 TAP_TAPCELL_ROW_13_101
*991 TAP_TAPCELL_ROW_13_102
*992 TAP_TAPCELL_ROW_14_103
*993 TAP_TAPCELL_ROW_14_104
*994 TAP_TAPCELL_ROW_14_105
*995 TAP_TAPCELL_ROW_15_106
*996 TAP_TAPCELL_ROW_15_107
*997 TAP_TAPCELL_ROW_15_108
*998 TAP_TAPCELL_ROW_16_109
*999 TAP_TAPCELL_ROW_16_110
*1000 TAP_TAPCELL_ROW_16_111
*1001 TAP_TAPCELL_ROW_17_112
*1002 TAP_TAPCELL_ROW_17_113
*1003 TAP_TAPCELL_ROW_17_114
*1004 TAP_TAPCELL_ROW_18_115
*1005 TAP_TAPCELL_ROW_18_116
*1006 TAP_TAPCELL_ROW_18_117
*1007 TAP_TAPCELL_ROW_19_118
*1008 TAP_TAPCELL_ROW_19_119
*1009 TAP_TAPCELL_ROW_19_120
*1010 TAP_TAPCELL_ROW_1_64
*1011 TAP_TAPCELL_ROW_1_65
*1012 TAP_TAPCELL_ROW_1_66
*1013 TAP_TAPCELL_ROW_20_121
*1014 TAP_TAPCELL_ROW_20_122
*1015 TAP_TAPCELL_ROW_20_123
*1016 TAP_TAPCELL_ROW_21_124
*1017 TAP_TAPCELL_ROW_21_125
*1018 TAP_TAPCELL_ROW_21_126
*1019 TAP_TAPCELL_ROW_22_127
*1020 TAP_TAPCELL_ROW_22_128
*1021 TAP_TAPCELL_ROW_22_129
*1022 TAP_TAPCELL_ROW_23_130
*1023 TAP_TAPCELL_ROW_23_131
*1024 TAP_TAPCELL_ROW_23_132
*1025 TAP_TAPCELL_ROW_24_133
*1026 TAP_TAPCELL_ROW_24_134
*1027 TAP_TAPCELL_ROW_24_135
*1028 TAP_TAPCELL_ROW_25_136
*1029 TAP_TAPCELL_ROW_25_137
*1030 TAP_TAPCELL_ROW_25_138
*1031 TAP_TAPCELL_ROW_26_139
*1032 TAP_TAPCELL_ROW_26_140
*1033 TAP_TAPCELL_ROW_26_141
*1034 TAP_TAPCELL_ROW_27_142
*1035 TAP_TAPCELL_ROW_27_143
*1036 TAP_TAPCELL_ROW_27_144
*1037 TAP_TAPCELL_ROW_28_145
*1038 TAP_TAPCELL_ROW_28_146
*1039 TAP_TAPCELL_ROW_28_147
*1040 TAP_TAPCELL_ROW_28_148
*1041 TAP_TAPCELL_ROW_28_149
*1042 TAP_TAPCELL_ROW_28_150
*1043 TAP_TAPCELL_ROW_2_67
*1044 TAP_TAPCELL_ROW_2_68
*1045 TAP_TAPCELL_ROW_2_69
*1046 TAP_TAPCELL_ROW_3_70
*1047 TAP_TAPCELL_ROW_3_71
*1048 TAP_TAPCELL_ROW_3_72
*1049 TAP_TAPCELL_ROW_4_73
*1050 TAP_TAPCELL_ROW_4_74
*1051 TAP_TAPCELL_ROW_4_75
*1052 TAP_TAPCELL_ROW_5_76
*1053 TAP_TAPCELL_ROW_5_77
*1054 TAP_TAPCELL_ROW_5_78
*1055 TAP_TAPCELL_ROW_6_79
*1056 TAP_TAPCELL_ROW_6_80
*1057 TAP_TAPCELL_ROW_6_81
*1058 TAP_TAPCELL_ROW_7_82
*1059 TAP_TAPCELL_ROW_7_83
*1060 TAP_TAPCELL_ROW_7_84
*1061 TAP_TAPCELL_ROW_8_85
*1062 TAP_TAPCELL_ROW_8_86
*1063 TAP_TAPCELL_ROW_8_87
*1064 TAP_TAPCELL_ROW_9_88
*1065 TAP_TAPCELL_ROW_9_89
*1066 TAP_TAPCELL_ROW_9_90
*1067 _213_
*1068 _214_
*1069 _215_
*1070 _216_
*1071 _217_
*1072 _218_
*1073 _219_
*1074 _220_
*1075 _221_
*1076 _222_
*1077 _223_
*1078 _224_
*1079 _225_
*1080 _226_
*1081 _227_
*1082 _228_
*1083 _229_
*1084 _230_
*1085 _231_
*1086 _232_
*1087 _233_
*1088 _234_
*1089 _235_
*1090 _236_
*1091 _237_
*1092 _238_
*1093 _239_
*1094 _240_
*1095 _241_
*1096 _242_
*1097 _243_
*1098 _244_
*1099 _245_
*1100 _246_
*1101 _247_
*1102 _248_
*1103 _249_
*1104 _250_
*1105 _251_
*1106 _252_
*1107 _253_
*1108 _254_
*1109 _255_
*1110 _256_
*1111 _257_
*1112 _258_
*1113 _259_
*1114 _260_
*1115 _261_
*1116 _262_
*1117 _263_
*1118 _264_
*1119 _265_
*1120 _266_
*1121 _267_
*1122 _268_
*1123 _269_
*1124 _270_
*1125 _271_
*1126 _272_
*1127 _273_
*1128 _274_
*1129 _275_
*1130 _276_
*1131 _277_
*1132 _278_
*1133 _279_
*1134 _280_
*1135 _281_
*1136 _282_
*1137 _283_
*1138 _284_
*1139 _285_
*1140 _286_
*1141 _287_
*1142 _288_
*1143 _289_
*1144 _290_
*1145 _291_
*1146 _292_
*1147 _293_
*1148 _294_
*1149 _295_
*1150 _296_
*1151 _297_
*1152 _298_
*1153 _299_
*1154 _300_
*1155 _301_
*1156 _302_
*1157 _303_
*1158 _304_
*1159 _305_
*1160 _306_
*1161 _307_
*1162 _308_
*1163 _309_
*1164 _310_
*1165 _311_
*1166 _312_
*1167 _313_
*1168 _314_
*1169 _315_
*1170 _316_
*1171 _317_
*1172 _318_
*1173 _319_
*1174 _320_
*1175 _321_
*1176 _322_
*1177 _323_
*1178 _324_
*1179 _325_
*1180 _326_
*1181 _327_
*1182 _328_
*1183 _329_
*1184 _330_
*1185 _331_
*1186 _332_
*1187 _333_
*1188 _334_
*1189 _335_
*1190 _336_
*1191 _337_
*1192 _338_
*1193 _339_
*1194 _340_
*1195 _341_
*1196 _342_
*1197 _343_
*1198 _344_
*1199 _345_
*1200 _346_
*1201 _347_
*1202 _348_
*1203 _349_
*1204 _350_
*1205 _351_
*1206 _352_
*1207 _353_
*1208 _354_
*1209 _355_
*1210 _356_
*1211 _357_
*1212 _358_
*1213 _359_
*1214 _360_
*1215 _361_
*1216 _362_
*1217 _363_
*1218 _364_
*1219 _365_
*1220 _366_
*1221 _367_
*1222 _368_
*1223 _369_
*1224 _370_
*1225 _371_
*1226 _372_
*1227 _373_
*1228 _374_
*1229 _375_
*1230 _376_
*1231 _377_
*1232 _378_
*1233 _379_
*1234 _380_
*1235 _381_
*1236 _382_
*1237 _383_
*1238 _384_
*1239 _385_
*1240 _386_
*1241 _387_
*1242 _388_
*1243 _389_
*1244 _390_
*1245 _391_
*1246 _392_
*1247 _393_
*1248 _394_
*1249 _395_
*1250 _396_
*1251 _397_
*1252 _398_
*1253 _399_
*1254 _400_
*1255 _401_
*1256 _402_
*1257 _403_
*1258 _404_
*1259 _405_
*1260 _406_
*1261 _407_
*1262 _408_
*1263 _409_
*1264 _410_
*1265 _411_
*1266 _412_
*1267 _413_
*1268 _414_
*1269 _415_
*1270 _416_
*1271 _417_
*1272 _418_
*1273 _419_
*1274 _420_
*1275 _421_
*1276 _422_
*1277 _423_
*1278 _424_
*1279 _425_
*1280 _426_
*1281 _427_
*1282 _428_
*1283 _429_
*1284 _430_
*1285 _431_
*1286 _432_
*1287 _433_
*1288 _434_
*1289 _435_
*1290 _436_
*1291 _437_
*1292 _438_
*1293 _439_
*1294 _440_
*1295 _441_
*1296 _442_
*1297 _443_
*1298 _444_
*1299 _445_
*1300 _446_
*1301 _447_
*1302 _448_
*1303 _449_
*1304 _450_
*1305 _451_
*1306 _452_
*1307 _453_
*1308 _454_
*1309 _455_
*1310 _456_
*1311 _457_
*1312 _458_
*1313 _459_
*1314 _460_
*1315 _461_
*1316 _462_
*1317 _463_
*1318 _464_
*1319 _465_
*1320 _466_
*1321 _467_
*1322 _468_
*1323 _469_
*1324 _470_
*1325 _471_
*1326 _472_
*1327 _473_
*1328 _474_
*1329 _475_
*1330 _476_
*1331 _477_
*1332 _478_
*1333 _479_
*1334 _480_
*1335 _481_
*1336 _482_
*1337 _483_
*1338 _484_
*1339 _485_
*1340 _486_
*1341 _487_
*1342 _488_
*1343 _489_
*1344 _490_
*1345 _491_
*1346 _492_
*1347 _493_
*1348 clkbuf_0_clk
*1349 clkbuf_3_0__f_clk
*1350 clkbuf_3_1__f_clk
*1351 clkbuf_3_2__f_clk
*1352 clkbuf_3_3__f_clk
*1353 clkbuf_3_4__f_clk
*1354 clkbuf_3_5__f_clk
*1355 clkbuf_3_6__f_clk
*1356 clkbuf_3_7__f_clk
*1357 clkload0
*1358 clkload1
*1359 clkload2
*1360 clkload3
*1361 clkload4
*1362 clkload5
*1363 fanout23
*1364 fanout24
*1365 fanout25
*1366 fanout26
*1367 fanout27
*1368 fanout28
*1369 fanout29
*1370 fanout30
*1371 fanout31
*1372 fanout32
*1373 hold33
*1374 hold34
*1375 hold35
*1376 hold36
*1377 hold37
*1378 hold38
*1379 hold39
*1380 hold40
*1381 hold41
*1382 hold42
*1383 hold43
*1384 hold44
*1385 hold45
*1386 hold46
*1387 hold47
*1388 hold48
*1389 hold49
*1390 hold50
*1391 hold51
*1392 hold52
*1393 hold53
*1394 hold54
*1395 hold55
*1396 hold56
*1397 hold57
*1398 hold58
*1399 hold59
*1400 hold60
*1401 hold61
*1402 hold62
*1403 hold63
*1404 hold64
*1405 hold65
*1406 hold66
*1407 hold67
*1408 hold68
*1409 hold69
*1410 hold70
*1411 hold71
*1412 hold72
*1413 hold73
*1414 hold74
*1415 hold75
*1416 hold76
*1417 hold77
*1418 hold78
*1419 hold79
*1420 hold80
*1421 hold81
*1422 hold82
*1423 hold83
*1424 hold84
*1425 hold85
*1426 hold86
*1427 hold87
*1428 hold88
*1429 hold89
*1430 hold90
*1431 hold91
*1432 hold92
*1433 input1
*1434 input10
*1435 input11
*1436 input2
*1437 input3
*1438 input4
*1439 input5
*1440 input6
*1441 input7
*1442 input8
*1443 input9
*1444 output12
*1445 output13
*1446 output14
*1447 output15
*1448 output16
*1449 output17
*1450 output18
*1451 output19
*1452 output20
*1453 output21
*1454 output22

*PORTS
clk I
reset I
rx I
rx_data[0] O
rx_data[1] O
rx_data[2] O
rx_data[3] O
rx_data[4] O
rx_data[5] O
rx_data[6] O
rx_data[7] O
rx_valid O
tx O
tx_busy O
tx_data[0] I
tx_data[1] I
tx_data[2] I
tx_data[3] I
tx_data[4] I
tx_data[5] I
tx_data[6] I
tx_data[7] I
tx_start I

*D_NET *3 0.0125708
*CONN
*P clk I
*I *1348:A I *D sky130_fd_sc_hd__clkbuf_16
*CAP
1 clk 0.00418193
2 *1348:A 7.1017e-05
3 *3:30 0.000772695
4 *3:22 0.00488361
5 *1348:A *1110:B1 5.50049e-05
6 *1348:A *27:12 0.000138245
7 *1348:A *129:16 2.3034e-05
8 *3:22 tx_busy 0.000352168
9 *3:22 *100:12 0
10 *3:22 *219:56 0.000246112
11 *3:22 *220:21 0
12 *3:22 *231:8 0.000187913
13 *3:22 *233:10 8.57549e-05
14 *3:22 *239:73 0.000481998
15 *3:22 *239:89 0.000657242
16 *3:22 *245:31 0.000108357
17 *3:22 *252:27 0
18 *3:22 *262:33 3.20101e-05
19 *3:22 *270:14 1.50741e-05
20 *3:22 *292:22 0.000144943
21 *3:22 *320:10 0
22 *3:22 *384:27 1.84241e-05
23 *3:22 *391:16 9.06377e-05
24 *3:30 *1110:A2 4.61851e-06
25 *3:30 *27:12 1.50678e-05
26 *3:30 *54:8 4.949e-06
27 *3:30 *239:23 0
*RES
1 clk *3:22 49.1246 
2 *3:22 *3:30 18.8074 
3 *3:30 *1348:A 40.2164 
*END

*D_NET *4 0.00185277
*CONN
*P reset I
*I *1433:A I *D sky130_fd_sc_hd__clkdlybuf4s25_1
*CAP
1 reset 0.000541854
2 *1433:A 0
3 *4:13 0.000541854
4 *4:13 tx 0.000314935
5 *4:13 *1260:A1 0
6 *4:13 *1335:CLK 0.000180939
7 *4:13 *15:10 5.3304e-05
8 *4:13 *25:13 0
9 *4:13 *102:8 0
10 *4:13 *244:39 0.000219882
11 *4:13 *250:10 0
*RES
1 reset *4:13 30.2613 
2 *4:13 *1433:A 23 
*END

*D_NET *5 0.00100899
*CONN
*P rx I
*I *1436:A I *D sky130_fd_sc_hd__clkdlybuf4s25_1
*CAP
1 rx 0.000504495
2 *1436:A 0
3 *5:13 0.000504495
*RES
1 rx *5:13 29.9679 
2 *5:13 *1436:A 23 
*END

*D_NET *6 0.00108875
*CONN
*P rx_data[0] O
*I *1444:X O *D sky130_fd_sc_hd__clkdlybuf4s25_1
*CAP
1 rx_data[0] 0.00038134
2 *1444:X 0.000163037
3 *6:10 0.000544377
4 *6:10 *1444:A 0
*RES
1 *1444:X *6:10 49.1382 
2 *6:10 rx_data[0] 1.3608 
*END

*D_NET *7 0.00351105
*CONN
*P rx_data[1] O
*I *1445:X O *D sky130_fd_sc_hd__clkdlybuf4s25_1
*CAP
1 rx_data[1] 0.000235531
2 *1445:X 0.000805488
3 *7:8 0.00104102
4 rx_data[1] rx_data[5] 0.000545615
5 rx_data[1] rx_data[6] 0.000545615
6 *7:8 *1383:A 1.94812e-05
7 *7:8 *1417:A 0.000154313
8 *7:8 *11:8 9.84851e-05
9 *7:8 *17:9 1.21972e-05
10 *7:8 *292:10 5.3304e-05
*RES
1 *1445:X *7:8 49.5793 
2 *7:8 rx_data[1] 13.2468 
*END

*D_NET *8 0.00148962
*CONN
*P rx_data[2] O
*I *1446:X O *D sky130_fd_sc_hd__clkdlybuf4s25_1
*CAP
1 rx_data[2] 0.000607587
2 *1446:X 9.63241e-05
3 *8:8 0.000703911
4 *8:8 *159:76 8.1796e-05
*RES
1 *1446:X *8:8 39.5743 
2 *8:8 rx_data[2] 13.2468 
*END

*D_NET *9 0.0034713
*CONN
*P rx_data[3] O
*I *1447:X O *D sky130_fd_sc_hd__clkdlybuf4s25_1
*CAP
1 rx_data[3] 0.000664227
2 *1447:X 0.000698564
3 *9:8 0.00136279
4 rx_data[3] *269:81 0
5 *9:8 *269:66 0.000648929
6 *9:8 *269:81 9.67842e-05
*RES
1 *1447:X *9:8 48.15 
2 *9:8 rx_data[3] 13.375 
*END

*D_NET *10 0.00288154
*CONN
*P rx_data[4] O
*I *1448:X O *D sky130_fd_sc_hd__clkdlybuf4s25_1
*CAP
1 rx_data[4] 0.000490559
2 *1448:X 0.000549606
3 *10:8 0.00104017
4 rx_data[4] *158:31 0
5 rx_data[4] *255:8 0.000153144
6 rx_data[4] *297:10 3.56433e-05
7 *10:8 *1448:A 0.000346246
8 *10:8 *47:14 0.000112685
9 *10:8 *295:8 5.50106e-05
10 *10:8 *297:10 9.84794e-05
*RES
1 *1448:X *10:8 48.6264 
2 *10:8 rx_data[4] 11.6143 
*END

*D_NET *11 0.0027743
*CONN
*P rx_data[5] O
*I *1449:X O *D sky130_fd_sc_hd__clkdlybuf4s25_1
*CAP
1 rx_data[5] 0.000447094
2 *1449:X 0.000498941
3 *11:8 0.000946035
4 *11:8 *1450:A 7.88926e-05
5 *11:8 *12:8 5.67058e-05
6 *11:8 *159:76 5.50106e-05
7 *11:8 *269:144 4.75206e-05
8 rx_data[1] rx_data[5] 0.000545615
9 *7:8 *11:8 9.84851e-05
*RES
1 *1449:X *11:8 47.6736 
2 *11:8 rx_data[5] 13.5989 
*END

*D_NET *12 0.00152218
*CONN
*P rx_data[6] O
*I *1450:X O *D sky130_fd_sc_hd__clkdlybuf4s25_1
*CAP
1 rx_data[6] 0.000421559
2 *1450:X 3.83684e-05
3 *12:8 0.000459927
4 rx_data[1] rx_data[6] 0.000545615
5 *11:8 *12:8 5.67058e-05
*RES
1 *1450:X *12:8 38.6214 
2 *12:8 rx_data[6] 13.2468 
*END

*D_NET *13 0.002808
*CONN
*P rx_data[7] O
*I *1451:X O *D sky130_fd_sc_hd__clkdlybuf4s25_1
*CAP
1 rx_data[7] 0.000607587
2 *1451:X 0.000442003
3 *13:8 0.00104959
4 *13:8 *159:89 0.000708823
*RES
1 *1451:X *13:8 45.7679 
2 *13:8 rx_data[7] 13.2468 
*END

*D_NET *14 0.00120856
*CONN
*P rx_valid O
*I *1452:X O *D sky130_fd_sc_hd__clkdlybuf4s25_1
*CAP
1 rx_valid 0.000373155
2 *1452:X 0.000110746
3 *14:10 0.000483902
4 *14:10 *260:8 0.000240753
*RES
1 *1452:X *14:10 49.1382 
2 *14:10 rx_valid 1.3608 
*END

*D_NET *15 0.00190807
*CONN
*P tx O
*I *1453:X O *D sky130_fd_sc_hd__clkdlybuf4s25_1
*CAP
1 tx 0.000188518
2 *1453:X 0.000510296
3 *15:10 0.000698815
4 tx *25:13 0
5 *15:10 *1335:CLK 2.50347e-05
6 *15:10 *244:39 6.21538e-05
7 *15:10 *248:8 5.50106e-05
8 *4:13 tx 0.000314935
9 *4:13 *15:10 5.3304e-05
*RES
1 *1453:X *15:10 46.8761 
2 *15:10 tx 9.04533 
*END

*D_NET *16 0.00244679
*CONN
*P tx_busy O
*I *1454:X O *D sky130_fd_sc_hd__clkdlybuf4s25_1
*CAP
1 tx_busy 0.000183465
2 *1454:X 0.000658299
3 *16:10 0.000841764
4 tx_busy *23:13 0.000211457
5 *16:10 *23:13 0
6 *16:10 *90:8 5.80963e-05
7 *16:10 *245:71 0.0001276
8 *16:10 *265:54 0
9 *16:10 *325:10 1.39431e-05
10 *16:10 *336:10 0
11 *3:22 tx_busy 0.000352168
*RES
1 *1454:X *16:10 49.0925 
2 *16:10 tx_busy 9.21707 
*END

*D_NET *17 0.00222338
*CONN
*P tx_data[0] I
*I *1437:A I *D sky130_fd_sc_hd__clkdlybuf4s25_1
*CAP
1 tx_data[0] 0.000553483
2 *1437:A 0
3 *17:9 0.000553483
4 *17:9 *1417:A 0.000182832
5 *17:9 *19:11 0.000782836
6 *17:9 *270:8 5.41288e-05
7 *17:9 *292:10 2.18409e-05
8 *17:9 *292:22 6.25829e-05
9 *7:8 *17:9 1.21972e-05
*RES
1 tx_data[0] *17:9 32.7832 
2 *17:9 *1437:A 23 
*END

*D_NET *18 0.00512007
*CONN
*P tx_data[1] I
*I *1438:A I *D sky130_fd_sc_hd__clkdlybuf4s25_1
*CAP
1 tx_data[1] 0.00173915
2 *1438:A 0
3 *18:15 9.29617e-05
4 *18:9 0.00183211
5 *18:9 *1081:A1 0.000149318
6 *18:9 *1081:A2 0.000272101
7 *18:9 *1081:A3 7.40718e-05
8 *18:9 *1268:B 0.000368375
9 *18:9 *1412:A 8.75601e-05
10 *18:9 *1417:A 0
11 *18:9 *19:11 0
12 *18:9 *20:11 0
13 *18:9 *85:8 8.62876e-05
14 *18:9 *245:55 9.23705e-06
15 *18:9 *268:79 1.22803e-05
16 *18:9 *270:14 0
17 *18:9 *386:52 2.93335e-05
18 *18:9 *391:16 0.000223408
19 *18:15 *1272:B 0
20 *18:15 *24:13 6.07611e-06
21 *18:15 *396:8 0.000137788
*RES
1 tx_data[1] *18:9 47.8011 
2 *18:9 *18:15 31.9057 
3 *18:15 *1438:A 23 
*END

*D_NET *19 0.00310749
*CONN
*P tx_data[2] I
*I *1439:A I *D sky130_fd_sc_hd__clkdlybuf4s25_1
*CAP
1 tx_data[2] 0.000764835
2 *1439:A 0
3 *19:11 0.000764835
4 *19:11 *20:11 0.000146197
5 *19:11 *270:8 0.000118143
6 *19:11 *292:10 0.000463621
7 *19:11 *292:22 3.47781e-05
8 *19:11 *317:10 3.22465e-05
9 *17:9 *19:11 0.000782836
10 *18:9 *19:11 0
*RES
1 tx_data[2] *19:11 39.5982 
2 *19:11 *1439:A 23 
*END

*D_NET *20 0.00380705
*CONN
*P tx_data[3] I
*I *1440:A I *D sky130_fd_sc_hd__clkdlybuf4s25_1
*CAP
1 tx_data[3] 0.0011219
2 *1440:A 0
3 *20:11 0.0011219
4 *20:11 *1281:A1 0.000884166
5 *20:11 *1281:A2 1.41077e-05
6 *20:11 *102:92 5.47808e-05
7 *20:11 *292:10 0.000453605
8 *20:11 *317:10 1.03955e-05
9 *18:9 *20:11 0
10 *19:11 *20:11 0.000146197
*RES
1 tx_data[3] *20:11 42.9332 
2 *20:11 *1440:A 23 
*END

*D_NET *21 0.00165391
*CONN
*P tx_data[4] I
*I *1441:A I *D sky130_fd_sc_hd__clkdlybuf4s25_1
*CAP
1 tx_data[4] 0.000540144
2 *1441:A 0
3 *21:15 0.000540144
4 *21:15 *22:11 0.000337485
5 *21:15 *25:13 5.3304e-05
6 *21:15 *314:10 0.000182832
*RES
1 tx_data[4] *21:15 30.9535 
2 *21:15 *1441:A 23 
*END

*D_NET *22 0.00155353
*CONN
*P tx_data[5] I
*I *1442:A I *D sky130_fd_sc_hd__clkdlybuf4s25_1
*CAP
1 tx_data[5] 0.000505236
2 *1442:A 0
3 *22:11 0.000505236
4 *22:11 *25:13 0.000205574
5 *22:11 *265:54 0
6 *21:15 *22:11 0.000337485
*RES
1 tx_data[5] *22:11 29.554 
2 *22:11 *1442:A 23 
*END

*D_NET *23 0.00115598
*CONN
*P tx_data[6] I
*I *1443:A I *D sky130_fd_sc_hd__clkdlybuf4s25_1
*CAP
1 tx_data[6] 0.000465645
2 *1443:A 0
3 *23:13 0.000465645
4 *23:13 *245:71 1.32314e-05
5 tx_busy *23:13 0.000211457
6 *16:10 *23:13 0
*RES
1 tx_data[6] *23:13 29.9679 
2 *23:13 *1443:A 23 
*END

*D_NET *24 0.00243079
*CONN
*P tx_data[7] I
*I *1434:A I *D sky130_fd_sc_hd__clkdlybuf4s25_1
*CAP
1 tx_data[7] 0.00106784
2 *1434:A 0
3 *24:13 0.00106784
4 *24:13 *1272:B 7.30978e-05
5 *24:13 *1281:C1 0
6 *24:13 *249:10 0
7 *24:13 *317:10 0.000165044
8 *24:13 *396:8 5.08899e-05
9 *18:15 *24:13 6.07611e-06
*RES
1 tx_data[7] *24:13 36.5678 
2 *24:13 *1434:A 38 
*END

*D_NET *25 0.00223369
*CONN
*P tx_start I
*I *1435:A I *D sky130_fd_sc_hd__clkdlybuf4s25_1
*CAP
1 tx_start 0.000707576
2 *1435:A 0
3 *25:13 0.000707576
4 *25:13 *1340:CLK 0.000225275
5 *25:13 *88:10 5.80963e-05
6 *25:13 *102:8 0
7 *25:13 *244:39 0.000180939
8 *25:13 *265:54 0
9 *25:13 *314:10 9.53554e-05
10 tx *25:13 0
11 *4:13 *25:13 0
12 *21:15 *25:13 5.3304e-05
13 *22:11 *25:13 0.000205574
*RES
1 tx_start *25:13 33.4306 
2 *25:13 *1435:A 23 
*END

*D_NET *26 0.000361545
*CONN
*I *1344:D I *D sky130_fd_sc_hd__dfxtp_2
*I *1112:X O *D sky130_fd_sc_hd__a31o_2
*CAP
1 *1344:D 2.33822e-05
2 *1112:X 2.33822e-05
3 *1344:D *1344:CLK 0.000129006
4 *1344:D *125:12 0.00017248
5 *1344:D *266:38 1.32939e-05
*RES
1 *1112:X *1344:D 47.8902 
*END

*D_NET *27 0.00137053
*CONN
*I *1345:D I *D sky130_fd_sc_hd__dfxtp_2
*I *1110:Y O *D sky130_fd_sc_hd__o31ai_2
*CAP
1 *1345:D 1.00796e-05
2 *1110:Y 0.000504197
3 *27:12 0.000514276
4 *1345:D *1104:B 1.74843e-05
5 *27:12 *1110:A2 0
6 *27:12 *1110:B1 2.4754e-05
7 *27:12 *127:14 8.51432e-05
8 *27:12 *129:16 4.54033e-05
9 *27:12 *239:23 1.58805e-05
10 *27:12 *365:25 0
11 *1348:A *27:12 0.000138245
12 *3:30 *27:12 1.50678e-05
*RES
1 *1110:Y *27:12 47.1557 
2 *27:12 *1345:D 38.1916 
*END

*D_NET *28 0.000437127
*CONN
*I *1346:D I *D sky130_fd_sc_hd__dfxtp_2
*I *1107:Y O *D sky130_fd_sc_hd__nor2_2
*CAP
1 *1346:D 5.81553e-05
2 *1107:Y 0.000160408
3 *28:8 0.000218564
4 *28:8 *1346:CLK 0
5 *28:8 *1413:A 0
*RES
1 *1107:Y *28:8 40.9621 
2 *28:8 *1346:D 38.9943 
*END

*D_NET *29 0.00067447
*CONN
*I *1347:D I *D sky130_fd_sc_hd__dfxtp_2
*I *1099:X O *D sky130_fd_sc_hd__a31o_2
*CAP
1 *1347:D 0.000131332
2 *1099:X 0.000105706
3 *29:8 0.000237038
4 *29:8 *266:98 6.07611e-06
5 *29:8 *271:12 0.000194318
6 *29:8 *337:10 0
*RES
1 *1099:X *29:8 40.61 
2 *29:8 *1347:D 40.0973 
*END

*D_NET *30 0.00121181
*CONN
*I *1381:A I *D sky130_fd_sc_hd__dlygate4sd3_1
*I *1127:Y O *D sky130_fd_sc_hd__a21oi_2
*CAP
1 *1381:A 0
2 *1127:Y 0.000310649
3 *30:10 0.000310649
4 *30:10 *1127:A1 0.000145163
5 *30:10 *1127:A2 5.82853e-05
6 *30:10 *1127:B1 9.06073e-05
7 *30:10 *139:16 2.10502e-05
8 *30:10 *139:22 9.92394e-05
9 *30:10 *282:14 7.64059e-06
10 *30:10 *342:21 0.000168524
*RES
1 *1127:Y *30:10 45.1671 
2 *30:10 *1381:A 38 
*END

*D_NET *31 0.000711981
*CONN
*I *1283:D I *D sky130_fd_sc_hd__dfxtp_2
*I *1129:X O *D sky130_fd_sc_hd__and3_2
*CAP
1 *1283:D 4.67363e-06
2 *1129:X 0.000160394
3 *31:10 0.000165068
4 *1283:D *243:24 1.64354e-05
5 *1283:D *342:8 1.79713e-05
6 *31:10 *264:22 9.84794e-05
7 *31:10 *264:33 5.70958e-05
8 *31:10 *339:10 0.000191864
*RES
1 *1129:X *31:10 41.7079 
2 *31:10 *1283:D 38.1916 
*END

*D_NET *32 0.000705324
*CONN
*I *1284:D I *D sky130_fd_sc_hd__dfxtp_2
*I *1131:Y O *D sky130_fd_sc_hd__nor2_2
*CAP
1 *1284:D 0.000225549
2 *1131:Y 5.55265e-05
3 *32:8 0.000281076
4 *32:8 *146:10 0.000113244
5 *32:8 *264:39 2.99277e-05
*RES
1 *1131:Y *32:8 39.5536 
2 *32:8 *1284:D 41.5266 
*END

*D_NET *33 0.000310343
*CONN
*I *1285:D I *D sky130_fd_sc_hd__dfxtp_2
*I *1133:X O *D sky130_fd_sc_hd__and3b_2
*CAP
1 *1285:D 1.58638e-05
2 *1133:X 9.67411e-05
3 *33:8 0.000112605
4 *33:8 *1133:B 8.51329e-05
*RES
1 *1133:X *33:8 40.2579 
2 *33:8 *1285:D 38.1916 
*END

*D_NET *34 0.000283498
*CONN
*I *1286:D I *D sky130_fd_sc_hd__dfxtp_2
*I *1135:Y O *D sky130_fd_sc_hd__a21oi_2
*CAP
1 *1286:D 4.77228e-05
2 *1135:Y 7.61995e-05
3 *34:8 0.000123922
4 *34:8 *242:24 0
5 *34:8 *286:14 3.56537e-05
*RES
1 *1135:Y *34:8 39.5536 
2 *34:8 *1286:D 38.668 
*END

*D_NET *35 0.000394536
*CONN
*I *1287:D I *D sky130_fd_sc_hd__dfxtp_2
*I *1137:Y O *D sky130_fd_sc_hd__nor2_2
*CAP
1 *1287:D 9.26771e-06
2 *1137:Y 0.000131937
3 *35:8 0.000141205
4 *1287:D *1288:CLK 1.64354e-05
5 *1287:D *137:20 4.9054e-06
6 *35:8 *1136:B1 9.07847e-05
7 *35:8 *148:8 0
*RES
1 *1137:Y *35:8 40.9621 
2 *35:8 *1287:D 38.1916 
*END

*D_NET *36 0.000497777
*CONN
*I *1288:D I *D sky130_fd_sc_hd__dfxtp_2
*I *1139:X O *D sky130_fd_sc_hd__and3b_2
*CAP
1 *1288:D 1.26909e-05
2 *1139:X 0.000146053
3 *36:10 0.000158744
4 *1288:D *349:10 8.15899e-06
5 *36:10 *1139:C 2.45549e-06
6 *36:10 *150:10 0.000169674
*RES
1 *1139:X *36:10 40.8793 
2 *36:10 *1288:D 38.1916 
*END

*D_NET *37 0.000394523
*CONN
*I *1289:D I *D sky130_fd_sc_hd__dfxtp_2
*I *1141:Y O *D sky130_fd_sc_hd__a21oi_2
*CAP
1 *1289:D 2.86595e-05
2 *1141:Y 5.62221e-05
3 *37:8 8.48816e-05
4 *1289:D *348:14 5.92579e-05
5 *37:8 *151:8 0.000110913
6 *37:8 *264:126 5.45887e-05
*RES
1 *1141:Y *37:8 39.5536 
2 *37:8 *1289:D 38.668 
*END

*D_NET *38 0.000284311
*CONN
*I *1290:D I *D sky130_fd_sc_hd__dfxtp_2
*I *1143:Y O *D sky130_fd_sc_hd__nor2_2
*CAP
1 *1290:D 8.18872e-06
2 *1143:Y 9.28654e-05
3 *38:8 0.000101054
4 *1290:D *242:98 1.64354e-05
5 *38:8 *152:10 6.57673e-05
*RES
1 *1143:Y *38:8 39.9057 
2 *38:8 *1290:D 38.1916 
*END

*D_NET *39 0.000633644
*CONN
*I *1291:D I *D sky130_fd_sc_hd__dfxtp_2
*I *1147:X O *D sky130_fd_sc_hd__and2_2
*CAP
1 *1291:D 8.13034e-05
2 *1147:X 9.66809e-05
3 *39:8 0.000177984
4 *1291:D *346:8 0.000192897
5 *39:8 *155:8 8.47785e-05
*RES
1 *1147:X *39:8 40.2579 
2 *39:8 *1291:D 40.0973 
*END

*D_NET *40 0.000794336
*CONN
*I *1292:D I *D sky130_fd_sc_hd__dfxtp_2
*I *1150:X O *D sky130_fd_sc_hd__o311a_2
*CAP
1 *1292:D 4.62744e-06
2 *1150:X 0.000278324
3 *40:10 0.000282952
4 *1292:D *307:27 1.64354e-05
5 *1292:D *340:19 1.74843e-05
6 *40:10 *115:8 0
7 *40:10 *124:78 8.4047e-05
8 *40:10 *243:10 2.01531e-05
9 *40:10 *307:12 3.70094e-05
10 *40:10 *370:60 5.3304e-05
*RES
1 *1150:X *40:10 42.9921 
2 *40:10 *1292:D 38.1916 
*END

*D_NET *41 0.000725563
*CONN
*I *1293:D I *D sky130_fd_sc_hd__dfxtp_2
*I *1151:X O *D sky130_fd_sc_hd__o2111a_2
*CAP
1 *1293:D 2.95675e-05
2 *1151:X 0.000213378
3 *41:10 0.000242946
4 *1293:D *1293:CLK 3.09254e-05
5 *1293:D *344:14 8.90341e-05
6 *41:10 *1293:CLK 3.83778e-05
7 *41:10 *43:16 5.41288e-05
8 *41:10 *116:29 0
9 *41:10 *328:10 2.72055e-05
*RES
1 *1151:X *41:10 41.3557 
2 *41:10 *1293:D 38.9943 
*END

*D_NET *42 0.00130357
*CONN
*I *1404:A I *D sky130_fd_sc_hd__dlygate4sd3_1
*I *1152:X O *D sky130_fd_sc_hd__o311a_2
*CAP
1 *1404:A 0
2 *1152:X 0.000335533
3 *42:10 0.000335533
4 *42:10 *1152:A1 5.70419e-05
5 *42:10 *117:20 0.000174407
6 *42:10 *124:18 1.32939e-05
7 *42:10 *264:10 0.000300098
8 *42:10 *264:22 2.69037e-05
9 *42:10 *368:27 6.07591e-05
*RES
1 *1152:X *42:10 45.7264 
2 *42:10 *1404:A 38 
*END

*D_NET *43 0.00288832
*CONN
*I *1295:D I *D sky130_fd_sc_hd__dfxtp_2
*I *1153:X O *D sky130_fd_sc_hd__and4_2
*CAP
1 *1295:D 0
2 *1153:X 7.3677e-05
3 *43:16 0.00053569
4 *43:8 0.000609367
5 *43:8 *1150:A2 0
6 *43:8 *141:10 0
7 *43:8 *326:10 7.28526e-05
8 *43:8 *369:44 3.70187e-05
9 *43:16 *1151:A1 0.00073928
10 *43:16 *1151:A2 5.50106e-05
11 *43:16 *1295:CLK 9.5877e-05
12 *43:16 *131:12 4.56219e-05
13 *43:16 *369:44 0.000569799
14 *41:10 *43:16 5.41288e-05
*RES
1 *1153:X *43:8 39.9057 
2 *43:8 *43:16 29.9764 
3 *43:16 *1295:D 23 
*END

*D_NET *44 0.0014162
*CONN
*I *1296:D I *D sky130_fd_sc_hd__dfxtp_2
*I *1157:X O *D sky130_fd_sc_hd__o211a_2
*CAP
1 *1296:D 0.000117549
2 *1157:X 0.000387788
3 *44:10 0.000505337
4 *44:10 *158:27 0.000261418
5 *44:10 *160:10 0
6 *44:10 *356:8 0.00014411
*RES
1 *1157:X *44:10 47.2179 
2 *44:10 *1296:D 40.0973 
*END

*D_NET *45 9.50084e-05
*CONN
*I *1379:A I *D sky130_fd_sc_hd__dlygate4sd3_1
*I *1159:X O *D sky130_fd_sc_hd__o211a_2
*CAP
1 *1379:A 1.91513e-05
2 *1159:X 1.91513e-05
3 *1379:A *252:18 5.67058e-05
*RES
1 *1159:X *1379:A 46.6214 
*END

*D_NET *46 0.000621214
*CONN
*I *1388:A I *D sky130_fd_sc_hd__dlygate4sd3_1
*I *1161:X O *D sky130_fd_sc_hd__o211a_2
*CAP
1 *1388:A 0.000192754
2 *1161:X 0.000192754
3 *1388:A *1160:A 2.32004e-05
4 *1388:A *1161:B1 3.22879e-05
5 *1388:A *158:53 0.000126914
6 *1388:A *158:63 5.3304e-05
*RES
1 *1161:X *1388:A 49.9564 
*END

*D_NET *47 0.00355558
*CONN
*I *1390:A I *D sky130_fd_sc_hd__dlygate4sd3_1
*I *1163:X O *D sky130_fd_sc_hd__o211a_2
*CAP
1 *1390:A 0
2 *1163:X 0.000389716
3 *47:14 0.000581389
4 *47:8 0.000971104
5 *47:8 *1157:A2 0.000141888
6 *47:8 *1165:A1 0
7 *47:8 *48:8 7.03869e-05
8 *47:8 *159:91 0.000629188
9 *47:8 *254:14 3.884e-05
10 *47:8 *291:20 0
11 *47:8 *293:10 0
12 *47:14 *1448:A 0.000182832
13 *47:14 *293:10 0.000437555
14 *10:8 *47:14 0.000112685
*RES
1 *1163:X *47:8 48.3571 
2 *47:8 *47:14 27.0764 
3 *47:14 *1390:A 23 
*END

*D_NET *48 0.00123716
*CONN
*I *1300:D I *D sky130_fd_sc_hd__dfxtp_2
*I *1165:X O *D sky130_fd_sc_hd__o211a_2
*CAP
1 *1300:D 5.81553e-05
2 *1165:X 0.000290835
3 *48:8 0.00034899
4 *48:8 *1157:A2 0.000159691
5 *48:8 *1165:A1 0.000118899
6 *48:8 *1201:A1 0.000190205
7 *47:8 *48:8 7.03869e-05
*RES
1 *1165:X *48:8 46.2443 
2 *48:8 *1300:D 38.9943 
*END

*D_NET *49 0.00084706
*CONN
*I *1377:A I *D sky130_fd_sc_hd__dlygate4sd3_1
*I *1167:X O *D sky130_fd_sc_hd__o211a_2
*CAP
1 *1377:A 0
2 *1167:X 0.000343827
3 *49:10 0.000343827
4 *49:10 *244:85 0
5 *49:10 *272:12 0.000102365
6 *49:10 *277:6 5.70419e-05
7 *49:10 *278:8 0
8 *49:10 *365:25 0
*RES
1 *1167:X *49:10 45.1257 
2 *49:10 *1377:A 38 
*END

*D_NET *50 0.000660898
*CONN
*I *1383:A I *D sky130_fd_sc_hd__dlygate4sd3_1
*I *1169:X O *D sky130_fd_sc_hd__o211a_2
*CAP
1 *1383:A 3.42813e-05
2 *1169:X 0.000286427
3 *50:8 0.000320709
4 *50:8 *252:27 0
5 *50:8 *285:8 0
6 *50:8 *322:8 0
7 *7:8 *1383:A 1.94812e-05
*RES
1 *1169:X *50:8 43.075 
2 *50:8 *1383:A 38.6214 
*END

*D_NET *51 0.0016876
*CONN
*I *1386:A I *D sky130_fd_sc_hd__dlygate4sd3_1
*I *1171:X O *D sky130_fd_sc_hd__o211a_2
*CAP
1 *1386:A 0
2 *1171:X 0.000189522
3 *51:6 0.000189522
4 *51:6 *1451:A 0.000446281
5 *51:6 *159:89 0.000839247
6 *51:6 *287:6 2.30292e-05
*RES
1 *1171:X *51:6 32.1971 
2 *51:6 *1386:A 23 
*END

*D_NET *52 0.000677085
*CONN
*I *1304:D I *D sky130_fd_sc_hd__dfxtp_2
*I *1172:X O *D sky130_fd_sc_hd__or2_2
*CAP
1 *1304:D 0.000161395
2 *1172:X 7.87035e-05
3 *52:8 0.000240098
4 *1304:D *1304:CLK 5.50106e-05
5 *52:8 *1304:CLK 0.000130433
6 *52:8 *1326:CLK 1.14452e-05
*RES
1 *1172:X *52:8 39.9057 
2 *52:8 *1304:D 40.3666 
*END

*D_NET *53 0.000765374
*CONN
*I *1305:D I *D sky130_fd_sc_hd__dfxtp_2
*I *1173:X O *D sky130_fd_sc_hd__or2_2
*CAP
1 *1305:D 7.59242e-05
2 *1173:X 9.17809e-05
3 *53:10 0.000167705
4 *1305:D *1305:CLK 6.17437e-06
5 *1305:D *273:122 8.38361e-05
6 *53:10 *1107:A 0.000110922
7 *53:10 *241:8 0.000138718
8 *53:10 *241:73 1.14452e-05
9 *53:10 *248:45 5.3304e-05
10 *53:10 *273:105 2.55642e-05
*RES
1 *1173:X *53:10 40.5271 
2 *53:10 *1305:D 39.4137 
*END

*D_NET *54 0.00125923
*CONN
*I *1110:A3 I *D sky130_fd_sc_hd__o31ai_2
*I *1306:D I *D sky130_fd_sc_hd__dfxtp_2
*I *1109:X O *D sky130_fd_sc_hd__or2_2
*CAP
1 *1110:A3 0
2 *1306:D 0.000160843
3 *1109:X 9.04445e-05
4 *54:8 0.000251288
5 *1306:D *1110:A2 0.000280866
6 *1306:D *244:91 0.000280866
7 *54:8 *1110:A2 3.70094e-05
8 *54:8 *239:23 0
9 *54:8 *244:91 0.000152965
10 *3:30 *54:8 4.949e-06
*RES
1 *1109:X *54:8 40.2579 
2 *54:8 *1306:D 42.8109 
3 *54:8 *1110:A3 38 
*END

*D_NET *55 0.000706749
*CONN
*I *1307:D I *D sky130_fd_sc_hd__dfxtp_2
*I *1178:X O *D sky130_fd_sc_hd__o211a_2
*CAP
1 *1307:D 3.78872e-05
2 *1178:X 0.000180543
3 *55:10 0.00021843
4 *1307:D *185:12 5.16606e-05
5 *55:10 *185:38 0
6 *55:10 *239:153 9.20311e-06
7 *55:10 *239:161 2.93747e-05
8 *55:10 *239:170 1.21972e-05
9 *55:10 *246:46 0.000167452
*RES
1 *1178:X *55:10 41.7079 
2 *55:10 *1307:D 38.9943 
*END

*D_NET *56 0.0003996
*CONN
*I *1308:D I *D sky130_fd_sc_hd__dfxtp_2
*I *1183:X O *D sky130_fd_sc_hd__and2_2
*CAP
1 *1308:D 1.11712e-05
2 *1183:X 0.000135031
3 *56:10 0.000146202
4 *1308:D *269:25 1.64354e-05
5 *56:10 *94:8 6.71408e-06
6 *56:10 *269:25 8.4047e-05
7 *56:10 *271:86 0
*RES
1 *1183:X *56:10 40.175 
2 *56:10 *1308:D 38.1916 
*END

*D_NET *57 0.000241008
*CONN
*I *1309:D I *D sky130_fd_sc_hd__dfxtp_2
*I *1186:X O *D sky130_fd_sc_hd__and3_2
*CAP
1 *1309:D 1.5148e-05
2 *1186:X 7.59234e-05
3 *57:8 9.10714e-05
4 *1309:D *355:8 3.24476e-06
5 *57:8 *177:10 5.56203e-05
*RES
1 *1186:X *57:8 39.5536 
2 *57:8 *1309:D 38.1916 
*END

*D_NET *58 0.000560798
*CONN
*I *1310:D I *D sky130_fd_sc_hd__dfxtp_2
*I *1191:X O *D sky130_fd_sc_hd__o211a_2
*CAP
1 *1310:D 1.58638e-05
2 *1191:X 0.000138291
3 *58:10 0.000154154
4 *58:10 *1157:C1 0
5 *58:10 *119:50 0.000197479
6 *58:10 *246:12 5.50106e-05
*RES
1 *1191:X *58:10 41.2314 
2 *58:10 *1310:D 38.1916 
*END

*D_NET *59 0.00070881
*CONN
*I *1311:D I *D sky130_fd_sc_hd__dfxtp_2
*I *1193:X O *D sky130_fd_sc_hd__o311a_2
*CAP
1 *1311:D 0.000222211
2 *1193:X 4.6221e-05
3 *59:8 0.000268432
4 *59:8 *256:29 0.000116314
5 *59:8 *266:141 5.56306e-05
*RES
1 *1193:X *59:8 39.5536 
2 *59:8 *1311:D 41.0502 
*END

*D_NET *60 0.000477515
*CONN
*I *1312:D I *D sky130_fd_sc_hd__dfxtp_2
*I *1195:X O *D sky130_fd_sc_hd__o311a_2
*CAP
1 *1312:D 9.69592e-06
2 *1195:X 7.26387e-05
3 *60:8 8.23346e-05
4 *1312:D *159:59 1.64354e-05
5 *1312:D *185:66 3.24476e-06
6 *60:8 *1168:B 9.88575e-05
7 *60:8 *256:29 0.000194309
*RES
1 *1195:X *60:8 40.61 
2 *60:8 *1312:D 38.1916 
*END

*D_NET *61 0.00152532
*CONN
*I *1313:D I *D sky130_fd_sc_hd__dfxtp_2
*I *1197:X O *D sky130_fd_sc_hd__o311a_2
*CAP
1 *1313:D 6.24925e-05
2 *1197:X 0.000402491
3 *61:10 0.000464983
4 *61:10 *1170:A 0
5 *61:10 *1196:A1 7.75329e-06
6 *61:10 *1196:A2 0.000135557
7 *61:10 *1197:A1 5.70419e-05
8 *61:10 *184:10 0.000108681
9 *61:10 *247:79 0.000223043
10 *61:10 *269:57 6.32777e-05
11 *61:10 *291:20 0
*RES
1 *1197:X *61:10 46.0786 
2 *61:10 *1313:D 38.9943 
*END

*D_NET *62 0.00053467
*CONN
*I *1314:D I *D sky130_fd_sc_hd__dfxtp_2
*I *1201:X O *D sky130_fd_sc_hd__o211a_2
*CAP
1 *1314:D 1.58638e-05
2 *1201:X 0.000138804
3 *62:10 0.000154668
4 *62:10 *1201:A1 5.67058e-05
5 *62:10 *247:108 5.50049e-05
6 *62:10 *291:12 0.000113624
*RES
1 *1201:X *62:10 41.5836 
2 *62:10 *1314:D 38.1916 
*END

*D_NET *63 0.000281299
*CONN
*I *1315:D I *D sky130_fd_sc_hd__dfxtp_2
*I *1203:X O *D sky130_fd_sc_hd__o311a_2
*CAP
1 *1315:D 9.64149e-05
2 *1203:X 9.64149e-05
3 *1315:D *1315:CLK 5.67058e-05
4 *1315:D *159:6 3.17634e-05
*RES
1 *1203:X *1315:D 47.9471 
*END

*D_NET *64 0.000848414
*CONN
*I *1316:D I *D sky130_fd_sc_hd__dfxtp_2
*I *1205:X O *D sky130_fd_sc_hd__o311a_2
*CAP
1 *1316:D 0.000175972
2 *1205:X 0.000123734
3 *64:8 0.000299706
4 *1316:D *1270:A 9.95543e-06
5 *1316:D *159:48 0.000228903
6 *64:8 *1204:A2 0
7 *64:8 *189:10 0
8 *64:8 *268:46 0
9 *64:8 *284:10 1.01436e-05
*RES
1 *1205:X *64:8 40.2579 
2 *64:8 *1316:D 42.003 
*END

*D_NET *65 0.000559343
*CONN
*I *1317:D I *D sky130_fd_sc_hd__dfxtp_2
*I *1207:X O *D sky130_fd_sc_hd__o311a_2
*CAP
1 *1317:D 9.61671e-05
2 *1207:X 8.13542e-05
3 *65:8 0.000177521
4 *1317:D *158:53 0.000140259
5 *1317:D *167:18 2.45549e-06
6 *65:8 *158:53 9.48381e-06
7 *65:8 *247:19 0
8 *65:8 *287:23 5.21024e-05
*RES
1 *1207:X *65:8 39.5536 
2 *65:8 *1317:D 40.0973 
*END

*D_NET *66 0.000657687
*CONN
*I *1318:D I *D sky130_fd_sc_hd__dfxtp_2
*I *1215:X O *D sky130_fd_sc_hd__and2b_2
*CAP
1 *1318:D 0
2 *1215:X 0.000280502
3 *66:8 0.000280502
4 *66:8 *1221:A 9.66838e-05
*RES
1 *1215:X *66:8 27.7695 
2 *66:8 *1318:D 23 
*END

*D_NET *67 0.00124525
*CONN
*I *1402:A I *D sky130_fd_sc_hd__dlygate4sd3_1
*I *1217:Y O *D sky130_fd_sc_hd__a21boi_2
*CAP
1 *1402:A 4.22524e-05
2 *1217:Y 0.000267724
3 *67:10 0.000309976
4 *1402:A *1212:C 9.66668e-05
5 *1402:A *375:71 5.3304e-05
6 *67:10 *191:22 0.000134397
7 *67:10 *375:71 0.000340929
*RES
1 *1217:Y *67:10 43.8207 
2 *67:10 *1402:A 39.0979 
*END

*D_NET *68 0.00119706
*CONN
*I *1320:D I *D sky130_fd_sc_hd__dfxtp_2
*I *1220:X O *D sky130_fd_sc_hd__and3_2
*CAP
1 *1320:D 0.000150801
2 *1220:X 0.000119685
3 *68:8 0.000270486
4 *1320:D *1320:CLK 9.41704e-05
5 *68:8 *200:14 0.000323822
6 *68:8 *240:83 0.000168754
7 *68:8 *335:10 6.93449e-05
*RES
1 *1220:X *68:8 42.3707 
2 *68:8 *1320:D 40.3666 
*END

*D_NET *69 0.000711866
*CONN
*I *1321:D I *D sky130_fd_sc_hd__dfxtp_2
*I *1223:X O *D sky130_fd_sc_hd__and3b_2
*CAP
1 *1321:D 3.45771e-05
2 *1223:X 0.00015851
3 *69:8 0.000193087
4 *1321:D *240:77 5.92579e-05
5 *69:8 *202:10 0.000165634
6 *69:8 *263:74 0
7 *69:8 *371:37 0
8 *69:8 *376:57 1.22803e-05
9 *69:8 *377:10 8.85189e-05
*RES
1 *1223:X *69:8 42.3707 
2 *69:8 *1321:D 38.668 
*END

*D_NET *70 0.000433998
*CONN
*I *1322:D I *D sky130_fd_sc_hd__dfxtp_2
*I *1226:X O *D sky130_fd_sc_hd__and3_2
*CAP
1 *1322:D 1.13183e-05
2 *1226:X 0.000156135
3 *70:10 0.000167453
4 *1322:D *1322:CLK 1.64354e-05
5 *70:10 *203:8 8.26569e-05
*RES
1 *1226:X *70:10 40.8793 
2 *70:10 *1322:D 38.1916 
*END

*D_NET *71 0.00102821
*CONN
*I *1323:D I *D sky130_fd_sc_hd__dfxtp_2
*I *1229:X O *D sky130_fd_sc_hd__and3b_2
*CAP
1 *1323:D 4.3409e-05
2 *1229:X 0.000187207
3 *71:10 0.000230616
4 *1323:D *378:50 4.87572e-05
5 *71:10 *1228:A1 7.27085e-05
6 *71:10 *1229:A_N 6.03634e-05
7 *71:10 *1229:B 0.000182826
8 *71:10 *263:33 6.03634e-05
9 *71:10 *263:61 0.00014196
*RES
1 *1229:X *71:10 43.6136 
2 *71:10 *1323:D 38.9943 
*END

*D_NET *72 0.000862163
*CONN
*I *1324:D I *D sky130_fd_sc_hd__dfxtp_2
*I *1232:X O *D sky130_fd_sc_hd__and3b_2
*CAP
1 *1324:D 1.13183e-05
2 *1232:X 0.000251297
3 *72:10 0.000262616
4 *1324:D *263:97 1.64354e-05
5 *72:10 *1230:A 0
6 *72:10 *1232:C 3.22879e-05
7 *72:10 *201:67 7.03869e-05
8 *72:10 *263:29 6.6869e-05
9 *72:10 *263:97 0.000150952
10 *72:10 *380:10 0
*RES
1 *1232:X *72:10 44.4007 
2 *72:10 *1324:D 38.1916 
*END

*D_NET *73 0.000325193
*CONN
*I *1325:D I *D sky130_fd_sc_hd__dfxtp_2
*I *1235:X O *D sky130_fd_sc_hd__and3_2
*CAP
1 *1325:D 1.38132e-05
2 *1235:X 8.45079e-05
3 *73:8 9.83211e-05
4 *1325:D *1325:CLK 4.9054e-06
5 *73:8 *209:10 7.74854e-05
6 *73:8 *263:8 4.61596e-05
*RES
1 *1235:X *73:8 40.2579 
2 *73:8 *1325:D 38.1916 
*END

*D_NET *74 0.000488871
*CONN
*I *1326:D I *D sky130_fd_sc_hd__dfxtp_2
*I *1238:X O *D sky130_fd_sc_hd__and3b_2
*CAP
1 *1326:D 6.28446e-05
2 *1238:X 6.04448e-05
3 *74:8 0.000123289
4 *74:8 *1326:CLK 0.000171906
5 *74:8 *197:8 0
6 *74:8 *211:10 7.03869e-05
*RES
1 *1238:X *74:8 40.2579 
2 *74:8 *1326:D 38.9373 
*END

*D_NET *75 0.000921007
*CONN
*I *1327:D I *D sky130_fd_sc_hd__dfxtp_2
*I *1241:X O *D sky130_fd_sc_hd__o21ba_2
*CAP
1 *1327:D 2.28257e-05
2 *1241:X 0.000389756
3 *75:8 0.000412582
4 *1327:D *381:65 6.01634e-05
5 *75:8 *1211:B 8.0612e-06
6 *75:8 *1239:A 2.76184e-05
7 *75:8 *214:10 0
8 *75:8 *382:10 0
*RES
1 *1241:X *75:8 44.1314 
2 *75:8 *1327:D 38.668 
*END

*D_NET *76 0.000989674
*CONN
*I *1328:D I *D sky130_fd_sc_hd__dfxtp_2
*I *1243:X O *D sky130_fd_sc_hd__o21ba_2
*CAP
1 *1328:D 0.000101752
2 *1243:X 0.00020898
3 *76:8 0.000310732
4 *1328:D *196:18 6.68185e-05
5 *1328:D *241:20 0.00027142
6 *76:8 *196:18 2.99716e-05
7 *76:8 *214:10 0
8 *76:8 *215:8 0
9 *76:8 *310:10 0
*RES
1 *1243:X *76:8 42.0186 
2 *76:8 *1328:D 41.0502 
*END

*D_NET *77 0.000316587
*CONN
*I *1329:D I *D sky130_fd_sc_hd__dfxtp_2
*I *1246:X O *D sky130_fd_sc_hd__and3_2
*CAP
1 *1329:D 1.13183e-05
2 *1246:X 9.84506e-05
3 *77:8 0.000109769
4 *1329:D *241:18 1.64354e-05
5 *77:8 *216:10 8.0614e-05
*RES
1 *1246:X *77:8 40.2579 
2 *77:8 *1329:D 38.1916 
*END

*D_NET *78 0.000405788
*CONN
*I *1414:A I *D sky130_fd_sc_hd__dlygate4sd3_1
*I *1248:X O *D sky130_fd_sc_hd__o211a_2
*CAP
1 *1414:A 0.000139639
2 *1248:X 0.000139639
3 *1414:A *1248:A1 0.000126511
*RES
1 *1248:X *1414:A 49.0036 
*END

*D_NET *79 0.000765731
*CONN
*I *1331:D I *D sky130_fd_sc_hd__dfxtp_2
*I *1252:Y O *D sky130_fd_sc_hd__a211oi_2
*CAP
1 *1331:D 1.01088e-05
2 *1252:Y 0.000325889
3 *79:10 0.000335998
4 *1331:D *241:75 1.64354e-05
5 *79:10 *1251:B1_N 7.53384e-06
6 *79:10 *1252:A1 6.17437e-06
7 *79:10 *1252:B1 1.32939e-05
8 *79:10 *239:33 5.02972e-05
*RES
1 *1252:Y *79:10 43.4893 
2 *79:10 *1331:D 38.1916 
*END

*D_NET *80 0.000379891
*CONN
*I *1399:A I *D sky130_fd_sc_hd__dlygate4sd3_1
*I *1255:Y O *D sky130_fd_sc_hd__nor2_2
*CAP
1 *1399:A 0.000119816
2 *1255:Y 0.000119816
3 *1399:A *244:77 0.000140259
*RES
1 *1255:Y *1399:A 48.5271 
*END

*D_NET *81 0.000515683
*CONN
*I *1333:D I *D sky130_fd_sc_hd__dfxtp_2
*I *1259:X O *D sky130_fd_sc_hd__and3_2
*CAP
1 *1333:D 0.000146389
2 *1259:X 0.000146389
3 *1333:D *244:16 0.00012114
4 *1333:D *244:24 0.000101764
*RES
1 *1259:X *1333:D 49.5629 
*END

*D_NET *82 0.000905286
*CONN
*I *1334:D I *D sky130_fd_sc_hd__dfxtp_2
*I *1262:X O *D sky130_fd_sc_hd__o21ba_2
*CAP
1 *1334:D 5.28513e-05
2 *1262:X 0.000111478
3 *82:8 0.000164329
4 *1334:D *244:24 8.6426e-05
5 *82:8 *1260:A1 0.000224072
6 *82:8 *228:10 6.48049e-05
7 *82:8 *250:10 6.07611e-06
8 *82:8 *265:41 0.000195248
*RES
1 *1262:X *82:8 42.0186 
2 *82:8 *1334:D 38.9943 
*END

*D_NET *83 0.000532541
*CONN
*I *1335:D I *D sky130_fd_sc_hd__dfxtp_2
*I *1265:Y O *D sky130_fd_sc_hd__a21oi_2
*CAP
1 *1335:D 1.58638e-05
2 *1265:Y 0.00013876
3 *83:10 0.000154624
4 *83:10 *1265:A1 6.17437e-06
5 *83:10 *1265:B1 1.76557e-05
6 *83:10 *1335:CLK 4.21594e-06
7 *83:10 *229:8 0.000195248
*RES
1 *1265:Y *83:10 41.2314 
2 *83:10 *1335:D 38.1916 
*END

*D_NET *84 0.000562771
*CONN
*I *1336:D I *D sky130_fd_sc_hd__dfxtp_2
*I *1267:X O *D sky130_fd_sc_hd__o311a_2
*CAP
1 *1336:D 0.000104647
2 *1267:X 0.000122661
3 *84:10 0.000227308
4 *84:10 *1079:A0 5.50106e-05
5 *84:10 *104:8 0
6 *84:10 *239:89 5.31444e-05
*RES
1 *1267:X *84:10 40.175 
2 *84:10 *1336:D 39.4137 
*END

*D_NET *85 0.00101372
*CONN
*I *1337:D I *D sky130_fd_sc_hd__dfxtp_2
*I *1269:X O *D sky130_fd_sc_hd__o311a_2
*CAP
1 *1337:D 1.58638e-05
2 *1269:X 0.000122559
3 *85:8 0.000138422
4 *85:8 *1268:B 1.88972e-05
5 *85:8 *219:67 0.000251597
6 *85:8 *268:79 0.000380096
7 *18:9 *85:8 8.62876e-05
*RES
1 *1269:X *85:8 43.075 
2 *85:8 *1337:D 38.1916 
*END

*D_NET *86 0.000879671
*CONN
*I *1338:D I *D sky130_fd_sc_hd__dfxtp_2
*I *1271:X O *D sky130_fd_sc_hd__o311a_2
*CAP
1 *1338:D 0.000129641
2 *1271:X 6.04637e-05
3 *86:8 0.000190105
4 *1338:D *245:92 0.000271425
5 *86:8 *252:27 5.61311e-05
6 *86:8 *292:22 0.000171906
*RES
1 *1271:X *86:8 40.2579 
2 *86:8 *1338:D 41.0502 
*END

*D_NET *87 0.000830056
*CONN
*I *1339:D I *D sky130_fd_sc_hd__dfxtp_2
*I *1273:X O *D sky130_fd_sc_hd__o311a_2
*CAP
1 *1339:D 5.49023e-05
2 *1273:X 0.000153655
3 *87:10 0.000208557
4 *1339:D *234:10 4.64637e-05
5 *1339:D *245:57 0.000145274
6 *87:10 *1271:A3 2.76611e-06
7 *87:10 *1412:A 0
8 *87:10 *102:100 5.56356e-05
9 *87:10 *249:10 0.000162803
*RES
1 *1273:X *87:10 40.8793 
2 *87:10 *1339:D 39.6209 
*END

*D_NET *88 0.000406057
*CONN
*I *1340:D I *D sky130_fd_sc_hd__dfxtp_2
*I *1275:X O *D sky130_fd_sc_hd__o311a_2
*CAP
1 *1340:D 1.66233e-05
2 *1275:X 8.99164e-05
3 *88:10 0.00010654
4 *88:10 *1341:CLK 2.30292e-05
5 *88:10 *314:10 0.000111852
6 *25:13 *88:10 5.80963e-05
*RES
1 *1275:X *88:10 40.175 
2 *88:10 *1340:D 38.1916 
*END

*D_NET *89 0.000778693
*CONN
*I *1341:D I *D sky130_fd_sc_hd__dfxtp_2
*I *1277:X O *D sky130_fd_sc_hd__o311a_2
*CAP
1 *1341:D 1.42921e-05
2 *1277:X 0.00023603
3 *89:8 0.000250322
4 *1341:D *1274:B 8.55313e-05
5 *1341:D *1275:C1 8.38361e-05
6 *89:8 *102:25 0
7 *89:8 *236:10 0
8 *89:8 *268:83 0
9 *89:8 *315:10 0.000108681
*RES
1 *1277:X *89:8 42.3707 
2 *89:8 *1341:D 38.9373 
*END

*D_NET *90 0.000353408
*CONN
*I *1342:D I *D sky130_fd_sc_hd__dfxtp_2
*I *1279:X O *D sky130_fd_sc_hd__o311a_2
*CAP
1 *1342:D 6.76442e-05
2 *1279:X 5.22013e-05
3 *90:8 0.000119846
4 *90:8 *336:10 5.56203e-05
5 *16:10 *90:8 5.80963e-05
*RES
1 *1279:X *90:8 39.5536 
2 *90:8 *1342:D 38.9373 
*END

*D_NET *91 0.000559296
*CONN
*I *1343:D I *D sky130_fd_sc_hd__dfxtp_2
*I *1281:X O *D sky130_fd_sc_hd__o311a_2
*CAP
1 *1343:D 8.45249e-06
2 *1281:X 0.000165064
3 *91:10 0.000173516
4 *1343:D *245:61 1.64354e-05
5 *91:10 *102:92 9.84851e-05
6 *91:10 *102:100 3.56784e-05
7 *91:10 *303:10 6.16643e-05
*RES
1 *1281:X *91:10 41.0036 
2 *91:10 *1343:D 38.1916 
*END

*D_NET *92 0.00203322
*CONN
*I *1080:A I *D sky130_fd_sc_hd__or2_2
*I *1078:A I *D sky130_fd_sc_hd__nand2_2
*I *1263:B1 I *D sky130_fd_sc_hd__a31o_2
*I *1067:Y O *D sky130_fd_sc_hd__inv_2
*CAP
1 *1080:A 0
2 *1078:A 0
3 *1263:B1 0
4 *1067:Y 0
5 *92:27 9.43062e-05
6 *92:21 0.000208147
7 *92:12 0.000389691
8 *92:4 0.000503531
9 *92:12 *1263:A2 2.22079e-05
10 *92:12 *225:14 1.19796e-05
11 *92:12 *229:8 0
12 *92:12 *273:10 0
13 *92:12 *388:6 5.50049e-05
14 *92:12 *388:25 8.34394e-05
15 *92:21 *1080:B 5.3304e-05
16 *92:21 *388:25 0.000225393
17 *92:27 *196:51 0.00012838
18 *92:27 *387:12 1.01436e-05
19 *92:27 *387:18 0.000247687
*RES
1 *1067:Y *92:4 23 
2 *92:4 *92:12 36.6907 
3 *92:12 *1263:B1 23 
4 *92:4 *92:21 3.02429 
5 *92:21 *92:27 33.3143 
6 *92:27 *1078:A 23 
7 *92:21 *1080:A 23 
*END

*D_NET *93 0.0025163
*CONN
*I *1097:A I *D sky130_fd_sc_hd__or2_2
*I *1185:A I *D sky130_fd_sc_hd__nand2_2
*I *1198:C1 I *D sky130_fd_sc_hd__a211o_2
*I *1068:Y O *D sky130_fd_sc_hd__inv_2
*CAP
1 *1097:A 0
2 *1185:A 0
3 *1198:C1 0.000400598
4 *1068:Y 0.00028673
5 *93:41 0.000164233
6 *93:12 0.000400598
7 *93:10 0.000122497
8 *1198:C1 *1188:A1 0.000146701
9 *1198:C1 *1188:B1 9.58136e-05
10 *1198:C1 *1198:A1 0
11 *1198:C1 *1198:B1 6.01255e-05
12 *1198:C1 *355:8 1.39431e-05
13 *93:10 *1068:A 8.4047e-05
14 *93:10 *1186:A 1.47563e-05
15 *93:10 *158:16 5.3304e-05
16 *93:10 *246:20 0.000138708
17 *93:10 *355:16 9.26005e-05
18 *93:41 *1068:A 9.67842e-05
19 *93:41 *1097:B 0.000139352
20 *93:41 *1190:D 0.000141954
21 *93:41 *158:16 5.60174e-05
22 *93:41 *181:10 7.53384e-06
*RES
1 *1068:Y *93:10 40.8793 
2 *93:10 *93:12 15 
3 *93:12 *1198:C1 31.4721 
4 *93:12 *1185:A 23 
5 *1068:Y *93:41 27.4329 
6 *93:41 *1097:A 23 
*END

*D_NET *94 0.00284661
*CONN
*I *1179:B I *D sky130_fd_sc_hd__nand2_2
*I *1180:B I *D sky130_fd_sc_hd__or2_2
*I *1177:A I *D sky130_fd_sc_hd__or2_2
*I *1069:Y O *D sky130_fd_sc_hd__inv_2
*CAP
1 *1179:B 1.56056e-05
2 *1180:B 0
3 *1177:A 0.000191081
4 *1069:Y 0.000424873
5 *94:10 0.000307504
6 *94:8 0.000556902
7 *1177:A *185:12 0.000126847
8 *1177:A *246:50 0.000226306
9 *1177:A *271:76 0
10 *1177:A *271:86 3.92407e-05
11 *1177:A *272:27 0.00012838
12 *1177:A *272:42 2.08324e-05
13 *1179:B *172:17 8.33866e-05
14 *1179:B *271:86 9.26098e-05
15 *94:8 *269:25 1.04196e-05
16 *94:8 *269:38 2.80924e-06
17 *94:8 *353:56 3.71369e-05
18 *94:10 *1181:A 0.000168754
19 *94:10 *172:17 1.14452e-05
20 *94:10 *271:86 0.000323812
21 *94:10 *272:42 7.1949e-05
22 *56:10 *94:8 6.71408e-06
*RES
1 *1069:Y *94:8 43.3857 
2 *94:8 *94:10 4.37071 
3 *94:10 *1177:A 44.1936 
4 *94:10 *1180:B 38 
5 *94:8 *1179:B 39.2014 
*END

*D_NET *95 0.000538793
*CONN
*I *1248:A1 I *D sky130_fd_sc_hd__o211a_2
*I *1070:Y O *D sky130_fd_sc_hd__inv_2
*CAP
1 *1248:A1 0.000206141
2 *1070:Y 0.000206141
3 *1414:A *1248:A1 0.000126511
*RES
1 *1070:Y *1248:A1 49.9461 
*END

*D_NET *96 0.00137583
*CONN
*I *1152:C1 I *D sky130_fd_sc_hd__o311a_2
*I *1071:Y O *D sky130_fd_sc_hd__inv_2
*CAP
1 *1152:C1 0
2 *1071:Y 0.000502644
3 *96:10 0.000502644
4 *96:10 *117:20 0.000166522
5 *96:10 *243:18 5.12254e-05
6 *96:10 *243:20 0.00011733
7 *96:10 *243:65 2.93845e-05
8 *96:10 *264:10 6.07611e-06
*RES
1 *1071:Y *96:10 45.6436 
2 *96:10 *1152:C1 38 
*END

*D_NET *97 0.00370295
*CONN
*I *1148:A I *D sky130_fd_sc_hd__and2_2
*I *1101:A I *D sky130_fd_sc_hd__or3_2
*I *1146:A1 I *D sky130_fd_sc_hd__a32o_2
*I *1072:Y O *D sky130_fd_sc_hd__inv_2
*CAP
1 *1148:A 0
2 *1101:A 0
3 *1146:A1 0.000327721
4 *1072:Y 8.45096e-05
5 *97:38 0.000310545
6 *97:10 0.000404349
7 *97:6 0.000471683
8 *1146:A1 *1101:C 1.13812e-05
9 *1146:A1 *1115:D 0.000145163
10 *1146:A1 *1146:A2 0.000186038
11 *1146:A1 *1146:B1 1.61385e-05
12 *1146:A1 *116:18 0.000139882
13 *1146:A1 *346:25 3.21291e-05
14 *97:6 *1114:B 7.15126e-05
15 *97:6 *1114:C 0.000178517
16 *97:10 *1101:C 0.000218843
17 *97:10 *116:18 0.000207462
18 *97:38 *1101:C 0.000136609
19 *97:38 *1113:B 9.67842e-05
20 *97:38 *1114:C 1.24376e-05
21 *97:38 *1147:A 0.000189173
22 *97:38 *1148:B 4.5051e-05
23 *97:38 *1150:C1 0.000181131
24 *97:38 *1151:B1 2.47015e-05
25 *97:38 *132:10 3.22879e-05
26 *97:38 *132:26 0.000141879
27 *97:38 *133:77 3.70187e-05
28 *97:38 *243:71 0
*RES
1 *1072:Y *97:6 25.0507 
2 *97:6 *97:10 17.9621 
3 *97:10 *1146:A1 43.8621 
4 *97:10 *1101:A 38 
5 *97:6 *97:38 39.4043 
6 *97:38 *1148:A 23 
*END

*D_NET *98 0.00133686
*CONN
*I *1127:A1 I *D sky130_fd_sc_hd__a21oi_2
*I *1073:Y O *D sky130_fd_sc_hd__inv_2
*CAP
1 *1127:A1 9.73096e-05
2 *1073:Y 0.000166474
3 *98:8 0.000263783
4 *1127:A1 *1127:A2 8.05929e-05
5 *1127:A1 *1127:B1 0.000102971
6 *98:8 *140:8 0.00013765
7 *98:8 *282:14 0.000342913
8 *30:10 *1127:A1 0.000145163
*RES
1 *1073:Y *98:8 42.7229 
2 *98:8 *1127:A1 41.5007 
*END

*D_NET *99 0.000770173
*CONN
*I *1110:A1 I *D sky130_fd_sc_hd__o31ai_2
*I *1074:Y O *D sky130_fd_sc_hd__inv_2
*CAP
1 *1110:A1 0
2 *1074:Y 0.000155697
3 *99:8 0.000155697
4 *99:8 *248:33 0.000384805
5 *99:8 *273:105 7.39745e-05
*RES
1 *1074:Y *99:8 43.075 
2 *99:8 *1110:A1 38 
*END

*D_NET *100 0.00234733
*CONN
*I *1371:A I *D sky130_fd_sc_hd__clkdlybuf4s25_1
*I *1075:Y O *D sky130_fd_sc_hd__inv_2
*CAP
1 *1371:A 0
2 *1075:Y 0
3 *100:12 0.000984824
4 *100:6 0.000984824
5 *100:12 *244:91 0
6 *100:12 *248:29 0.000125904
7 *100:12 *273:105 4.6318e-06
8 *100:12 *278:8 0
9 *100:12 *302:8 0.000171906
10 *100:12 *384:27 7.52434e-05
11 *3:22 *100:12 0
*RES
1 *1075:Y *100:6 38 
2 *100:6 *100:12 34.4921 
3 *100:12 *1371:A 23 
*END

*D_NET *101 0.00111689
*CONN
*I *1176:A1 I *D sky130_fd_sc_hd__o211a_2
*I *1174:A2 I *D sky130_fd_sc_hd__a21oi_2
*I *1076:Y O *D sky130_fd_sc_hd__inv_2
*CAP
1 *1176:A1 0
2 *1174:A2 0
3 *1076:Y 0
4 *101:25 0.000308813
5 *101:10 7.17632e-05
6 *101:4 0.000380577
7 *101:10 *1108:B 0
8 *101:10 *272:27 1.14452e-05
9 *101:10 *368:49 0.000138718
10 *101:10 *370:14 2.70469e-05
11 *101:25 *1176:B1 3.29776e-05
12 *101:25 *1176:C1 7.28721e-05
13 *101:25 *127:35 5.58123e-05
14 *101:25 *170:8 6.7177e-06
15 *101:25 *368:65 1.01436e-05
*RES
1 *1076:Y *101:4 23 
2 *101:4 *101:10 31.9057 
3 *101:10 *1174:A2 23 
4 *101:4 *101:25 34.3655 
5 *101:25 *1176:A1 23 
*END

*D_NET *102 0.0136387
*CONN
*I *1281:A2 I *D sky130_fd_sc_hd__o311a_2
*I *1269:A2 I *D sky130_fd_sc_hd__o311a_2
*I *1271:A2 I *D sky130_fd_sc_hd__o311a_2
*I *1273:A2 I *D sky130_fd_sc_hd__o311a_2
*I *1279:A2 I *D sky130_fd_sc_hd__o311a_2
*I *1267:A2 I *D sky130_fd_sc_hd__o311a_2
*I *1277:A2 I *D sky130_fd_sc_hd__o311a_2
*I *1249:A I *D sky130_fd_sc_hd__nor2_2
*I *1275:A2 I *D sky130_fd_sc_hd__o311a_2
*I *1077:Y O *D sky130_fd_sc_hd__inv_2
*CAP
1 *1281:A2 7.14291e-05
2 *1269:A2 0
3 *1271:A2 0.00020308
4 *1273:A2 0
5 *1279:A2 0.000821666
6 *1267:A2 0.000277277
7 *1277:A2 0
8 *1249:A 0
9 *1275:A2 0
10 *1077:Y 0.000209406
11 *102:107 0.000364695
12 *102:100 0.00099089
13 *102:92 0.00107767
14 *102:88 0.000594343
15 *102:57 0.00106558
16 *102:44 0.000854345
17 *102:35 9.69388e-05
18 *102:29 0.000339621
19 *102:25 0.000974114
20 *102:10 0.000393192
21 *102:8 0.000209406
22 *1267:A2 *1079:A0 8.82787e-05
23 *1267:A2 *1267:A3 0.000265477
24 *1271:A2 *1269:A3 9.41704e-05
25 *1271:A2 *1269:C1 5.50049e-05
26 *1271:A2 *1271:A3 0.000127415
27 *1271:A2 *268:50 8.56254e-05
28 *1271:A2 *268:58 5.61697e-05
29 *1271:A2 *281:14 0
30 *1279:A2 *1279:A3 9.84794e-05
31 *1279:A2 *265:54 0.000182065
32 *1279:A2 *265:65 8.43466e-05
33 *1279:A2 *265:69 0
34 *1279:A2 *325:10 0
35 *1281:A2 *1281:A1 4.37033e-05
36 *102:8 *244:39 0
37 *102:8 *250:10 0.000379413
38 *102:8 *314:10 1.14452e-05
39 *102:25 *1275:B1 0.000137624
40 *102:25 *1275:C1 0
41 *102:25 *1341:CLK 6.1789e-05
42 *102:25 *265:54 0.00017192
43 *102:25 *315:10 0
44 *102:29 *1277:A1 5.50049e-05
45 *102:29 *314:10 0.000272383
46 *102:35 *1277:A3 2.22183e-05
47 *102:35 *265:93 3.48266e-05
48 *102:35 *272:57 1.34542e-05
49 *102:35 *325:10 0.000167452
50 *102:44 *1277:A1 5.50106e-05
51 *102:57 *1267:A3 0
52 *102:57 *219:67 0.000141879
53 *102:57 *265:108 5.08033e-05
54 *102:57 *268:79 0.000236792
55 *102:57 *313:10 9.65e-05
56 *102:57 *390:12 0.000188967
57 *102:88 *1279:A3 7.53384e-06
58 *102:88 *245:71 0
59 *102:88 *303:10 0
60 *102:88 *336:10 0.000177914
61 *102:88 *395:8 0
62 *102:92 *303:10 0.000183733
63 *102:100 *1281:A3 0.000108759
64 *102:100 *249:10 5.40241e-05
65 *102:100 *281:14 9.99007e-06
66 *102:100 *303:10 0
67 *102:100 *303:20 0.000334425
68 *102:107 *1271:A3 0.000436068
69 *102:107 *268:58 5.61255e-06
70 *102:107 *281:14 0.000240131
71 *4:13 *102:8 0
72 *20:11 *1281:A2 1.41077e-05
73 *20:11 *102:92 5.47808e-05
74 *25:13 *102:8 0
75 *87:10 *102:100 5.56356e-05
76 *89:8 *102:25 0
77 *91:10 *102:92 9.84851e-05
78 *91:10 *102:100 3.56784e-05
*RES
1 *1077:Y *102:8 43.075 
2 *102:8 *102:10 15 
3 *102:10 *1275:A2 23 
4 *102:10 *102:25 22.7679 
5 *102:25 *102:29 19.4329 
6 *102:29 *102:35 32.9621 
7 *102:35 *1249:A 23 
8 *102:29 *102:44 1.595 
9 *102:44 *1277:A2 23 
10 *102:44 *102:57 44.9143 
11 *102:57 *1267:A2 28.3857 
12 *102:25 *1279:A2 46.0993 
13 *1279:A2 *102:88 46.5136 
14 *102:88 *102:92 19.4329 
15 *102:92 *102:100 46.3021 
16 *102:100 *1273:A2 23 
17 *102:100 *102:107 5.38571 
18 *102:107 *1271:A2 27.93 
19 *102:107 *1269:A2 23 
20 *102:92 *1281:A2 24.595 
*END

*D_NET *103 0.00239797
*CONN
*I *1083:B1 I *D sky130_fd_sc_hd__o21a_2
*I *1264:A I *D sky130_fd_sc_hd__or2_2
*I *1078:Y O *D sky130_fd_sc_hd__nand2_2
*CAP
1 *1083:B1 0.00031581
2 *1264:A 5.39135e-05
3 *1078:Y 0.000200813
4 *103:10 0.000570536
5 *1083:B1 *1083:A1 0
6 *1083:B1 *105:21 0
7 *1083:B1 *196:51 2.60152e-05
8 *1083:B1 *224:10 9.91101e-05
9 *1083:B1 *226:10 8.51432e-05
10 *1083:B1 *265:25 0.000219873
11 *1083:B1 *387:10 0
12 *103:10 *1213:A 0.000273343
13 *103:10 *196:8 5.41385e-05
14 *103:10 *196:51 8.29273e-05
15 *103:10 *262:10 0.00029036
16 *103:10 *262:33 2.33476e-05
17 *103:10 *265:25 0.000102638
*RES
1 *1078:Y *103:10 44.6493 
2 *103:10 *1264:A 38.6214 
3 *103:10 *1083:B1 45.2293 
*END

*D_NET *104 0.000633078
*CONN
*I *1082:A0 I *D sky130_fd_sc_hd__mux2_1
*I *1079:X O *D sky130_fd_sc_hd__mux4_2
*CAP
1 *1082:A0 0.000142704
2 *1079:X 7.58908e-05
3 *104:8 0.000218594
4 *1082:A0 *219:27 0.000140259
5 *104:8 *219:67 5.56306e-05
6 *84:10 *104:8 0
*RES
1 *1079:X *104:8 39.5536 
2 *104:8 *1082:A0 40.5271 
*END

*D_NET *105 0.00273355
*CONN
*I *1251:A1 I *D sky130_fd_sc_hd__o21ba_2
*I *1083:A1 I *D sky130_fd_sc_hd__o21a_2
*I *1257:B1 I *D sky130_fd_sc_hd__a31o_2
*I *1250:A1 I *D sky130_fd_sc_hd__o21bai_2
*I *1080:X O *D sky130_fd_sc_hd__or2_2
*CAP
1 *1251:A1 0
2 *1083:A1 0.000164385
3 *1257:B1 9.23488e-05
4 *1250:A1 0
5 *1080:X 0.000291207
6 *105:21 0.000515791
7 *105:10 0.000415252
8 *105:6 0.000447402
9 *1083:A1 *1257:A1 0
10 *1083:A1 *220:40 5.90675e-06
11 *1083:A1 *224:10 0.000146822
12 *1083:A1 *384:72 0.000114092
13 *1257:B1 *1257:A1 0.000102389
14 *1257:B1 *220:71 2.80918e-05
15 *1257:B1 *384:64 0.000188934
16 *105:6 *265:8 8.19692e-05
17 *105:10 *1213:A 0
18 *105:10 *195:39 1.5532e-05
19 *105:10 *195:50 7.71993e-05
20 *105:10 *265:25 0
21 *105:21 *1079:S0 0
22 *105:21 *1251:B1_N 0
23 *105:21 *195:50 1.14452e-05
24 *105:21 *265:25 0
25 *105:21 *384:72 3.47781e-05
26 *1083:B1 *1083:A1 0
27 *1083:B1 *105:21 0
*RES
1 *1080:X *105:6 27.4329 
2 *105:6 *105:10 17.9621 
3 *105:10 *1250:A1 38 
4 *105:10 *105:21 4.28786 
5 *105:21 *1257:B1 40.5271 
6 *105:21 *1083:A1 41.9771 
7 *105:6 *1251:A1 23 
*END

*D_NET *106 0.00158397
*CONN
*I *1082:A1 I *D sky130_fd_sc_hd__mux2_1
*I *1081:X O *D sky130_fd_sc_hd__mux4_2
*CAP
1 *1082:A1 0
2 *1081:X 0.000417675
3 *106:8 0.000417675
4 *106:8 *1081:S0 0
5 *106:8 *219:67 0.000199298
6 *106:8 *268:79 0.000322603
7 *106:8 *386:42 0.000110913
8 *106:8 *390:18 0.000115808
*RES
1 *1081:X *106:8 47.6529 
2 *106:8 *1082:A1 38 
*END

*D_NET *107 0.00170325
*CONN
*I *1083:A2 I *D sky130_fd_sc_hd__o21a_2
*I *1082:X O *D sky130_fd_sc_hd__mux2_1
*CAP
1 *1083:A2 0.000152328
2 *1082:X 0.000565859
3 *107:10 0.000718187
4 *1083:A2 *220:40 1.3523e-05
5 *1083:A2 *224:10 0.000191255
6 *1083:A2 *384:72 8.06804e-06
7 *107:10 *219:27 5.40337e-05
*RES
1 *1082:X *107:10 48.0464 
2 *107:10 *1083:A2 41.0036 
*END

*D_NET *108 0.00130826
*CONN
*I *1092:A I *D sky130_fd_sc_hd__and4_2
*I *1094:A I *D sky130_fd_sc_hd__and4_2
*I *1085:Y O *D sky130_fd_sc_hd__nor2_2
*CAP
1 *1092:A 0.000140635
2 *1094:A 3.7998e-05
3 *1085:Y 0.000278897
4 *108:8 0.00045753
5 *1092:A *110:6 2.64616e-05
6 *1092:A *110:12 0.000189894
7 *1092:A *117:12 0.000113398
8 *1092:A *239:124 6.51997e-06
9 *1094:A *111:8 1.84831e-05
10 *108:8 *239:124 3.84404e-05
11 *108:8 *242:10 0
*RES
1 *1085:Y *108:8 43.075 
2 *108:8 *1094:A 38.6214 
3 *108:8 *1092:A 41.5836 
*END

*D_NET *109 0.00172253
*CONN
*I *1093:A I *D sky130_fd_sc_hd__or4b_2
*I *1102:A I *D sky130_fd_sc_hd__or4_2
*I *1086:X O *D sky130_fd_sc_hd__or2_2
*CAP
1 *1093:A 0.000127094
2 *1102:A 0
3 *1086:X 0.000248127
4 *109:10 0.000375221
5 *1093:A *1092:C 0.00020913
6 *1093:A *1093:C 5.84931e-05
7 *1093:A *111:14 8.78864e-05
8 *1093:A *113:8 1.97402e-05
9 *1093:A *116:10 2.95526e-05
10 *109:10 *1092:C 6.12484e-05
11 *109:10 *112:8 0.000322851
12 *109:10 *113:8 0.000183186
*RES
1 *1086:X *109:10 44.6493 
2 *109:10 *1102:A 38 
3 *109:10 *1093:A 41.9357 
*END

*D_NET *110 0.00102293
*CONN
*I *1092:B I *D sky130_fd_sc_hd__and4_2
*I *1094:B I *D sky130_fd_sc_hd__and4_2
*I *1087:Y O *D sky130_fd_sc_hd__nor3_2
*CAP
1 *1092:B 7.01793e-05
2 *1094:B 0
3 *1087:Y 0.000153824
4 *110:12 0.000110042
5 *110:6 0.000334046
6 *110:12 *117:12 2.56281e-05
7 *110:12 *239:124 0.000112855
8 *1092:A *110:6 2.64616e-05
9 *1092:A *110:12 0.000189894
*RES
1 *1087:Y *110:6 25.5271 
2 *110:6 *110:12 33.3143 
3 *110:12 *1094:B 23 
4 *110:6 *1092:B 24.0979 
*END

*D_NET *111 0.00178272
*CONN
*I *1102:B I *D sky130_fd_sc_hd__or4_2
*I *1093:B I *D sky130_fd_sc_hd__or4b_2
*I *1088:X O *D sky130_fd_sc_hd__or3_2
*CAP
1 *1102:B 0
2 *1093:B 0
3 *1088:X 0.000443033
4 *111:14 4.19191e-05
5 *111:8 0.000484952
6 *111:8 *1094:C 0.00010697
7 *111:8 *1094:D 5.14826e-05
8 *111:8 *117:12 0.000267768
9 *111:8 *124:14 0.000192342
10 *111:14 *1093:C 8.78864e-05
11 *1093:A *111:14 8.78864e-05
12 *1094:A *111:8 1.84831e-05
*RES
1 *1088:X *111:8 33.1707 
2 *111:8 *111:14 31.2014 
3 *111:14 *1093:B 23 
4 *111:8 *1102:B 23 
*END

*D_NET *112 0.00264379
*CONN
*I *1092:C I *D sky130_fd_sc_hd__and4_2
*I *1094:C I *D sky130_fd_sc_hd__and4_2
*I *1089:Y O *D sky130_fd_sc_hd__nor4_2
*CAP
1 *1092:C 0.000371699
2 *1094:C 0.000248831
3 *1089:Y 0.000201545
4 *112:8 0.000822075
5 *1092:C *1093:D_N 0.000186038
6 *1092:C *116:10 3.7122e-06
7 *1094:C *1094:D 0.000100486
8 *112:8 *113:8 9.20311e-06
9 *1093:A *1092:C 0.00020913
10 *109:10 *1092:C 6.12484e-05
11 *109:10 *112:8 0.000322851
12 *111:8 *1094:C 0.00010697
*RES
1 *1089:Y *112:8 42.7229 
2 *112:8 *1094:C 43.075 
3 *112:8 *1092:C 45.6436 
*END

*D_NET *113 0.00153117
*CONN
*I *1093:C I *D sky130_fd_sc_hd__or4b_2
*I *1102:C I *D sky130_fd_sc_hd__or4_2
*I *1090:X O *D sky130_fd_sc_hd__or4_2
*CAP
1 *1093:C 0.000159231
2 *1102:C 0
3 *1090:X 0.000341847
4 *113:8 0.000501078
5 *1093:C *116:10 2.95526e-05
6 *113:8 *1089:C 0.000140958
7 *113:8 *347:8 0
8 *113:8 *351:21 0
9 *1093:A *1093:C 5.84931e-05
10 *1093:A *113:8 1.97402e-05
11 *109:10 *113:8 0.000183186
12 *111:14 *1093:C 8.78864e-05
13 *112:8 *113:8 9.20311e-06
*RES
1 *1090:X *113:8 45.8921 
2 *113:8 *1102:C 38 
3 *113:8 *1093:C 41.5836 
*END

*D_NET *114 0.00263847
*CONN
*I *1093:D_N I *D sky130_fd_sc_hd__or4b_2
*I *1092:D I *D sky130_fd_sc_hd__and4_2
*I *1094:D I *D sky130_fd_sc_hd__and4_2
*I *1091:X O *D sky130_fd_sc_hd__and4bb_2
*CAP
1 *1093:D_N 9.02028e-05
2 *1092:D 0
3 *1094:D 0.000175222
4 *1091:X 0.000515958
5 *114:23 9.02028e-05
6 *114:10 0.000691179
7 *1094:D *124:14 0.000163256
8 *1094:D *239:124 0.000113853
9 *114:10 *1091:A_N 5.76359e-05
10 *114:10 *124:14 0.000138747
11 *114:10 *239:124 6.23469e-05
12 *114:10 *243:18 3.0918e-05
13 *114:10 *243:20 4.67488e-05
14 *114:10 *243:65 0.000124196
15 *1092:C *1093:D_N 0.000186038
16 *1094:C *1094:D 0.000100486
17 *111:8 *1094:D 5.14826e-05
*RES
1 *1091:X *114:10 46.7207 
2 *114:10 *1094:D 42.4121 
3 *114:10 *114:23 15 
4 *114:23 *1092:D 23 
5 *114:23 *1093:D_N 25.0507 
*END

*D_NET *115 0.00609942
*CONN
*I *1153:D I *D sky130_fd_sc_hd__and4_2
*I *1176:B1 I *D sky130_fd_sc_hd__o211a_2
*I *1111:A2 I *D sky130_fd_sc_hd__a221o_2
*I *1092:X O *D sky130_fd_sc_hd__and4_2
*CAP
1 *1153:D 0.000128854
2 *1176:B1 0.000377108
3 *1111:A2 0
4 *1092:X 0.000474739
5 *115:35 0.000755474
6 *115:24 0.000361395
7 *115:10 0.000610907
8 *115:8 0.000474739
9 *1153:D *1153:B 5.50106e-05
10 *1153:D *1187:A 3.17516e-05
11 *1153:D *271:25 1.58805e-05
12 *1153:D *326:10 2.36844e-05
13 *1153:D *368:65 0.000137651
14 *1153:D *370:18 3.70187e-05
15 *1153:D *370:22 7.39034e-05
16 *1176:B1 *1187:A 6.82416e-05
17 *1176:B1 *266:59 5.3304e-05
18 *1176:B1 *367:51 0
19 *115:8 *124:14 0.000219988
20 *115:8 *124:78 0.000167708
21 *115:8 *239:122 0
22 *115:8 *243:10 7.80354e-05
23 *115:8 *243:14 9.63918e-05
24 *115:8 *307:12 0
25 *115:8 *370:22 3.66809e-05
26 *115:24 *1111:B2 0
27 *115:24 *1344:CLK 0
28 *115:24 *126:14 4.00259e-06
29 *115:24 *130:10 0.000272377
30 *115:24 *300:42 0.000357057
31 *115:24 *368:27 2.05503e-05
32 *115:24 *369:27 0.000534291
33 *115:35 *326:10 0.000101326
34 *115:35 *369:27 0.000165186
35 *115:35 *370:22 0.00033319
36 *40:10 *115:8 0
37 *101:25 *1176:B1 3.29776e-05
*RES
1 *1092:X *115:8 48.8854 
2 *115:8 *115:10 8 
3 *115:10 *115:24 28.8943 
4 *115:24 *1111:A2 23 
5 *115:10 *115:35 12.8604 
6 *115:35 *1176:B1 44.0745 
7 *115:35 *1153:D 41.1279 
*END

*D_NET *116 0.0105601
*CONN
*I *1146:B1 I *D sky130_fd_sc_hd__a32o_2
*I *1198:A2 I *D sky130_fd_sc_hd__a211o_2
*I *1175:A2 I *D sky130_fd_sc_hd__a21o_2
*I *1095:C I *D sky130_fd_sc_hd__and3_2
*I *1098:A I *D sky130_fd_sc_hd__nor2_2
*I *1188:A2 I *D sky130_fd_sc_hd__a211o_2
*I *1151:A2 I *D sky130_fd_sc_hd__o2111a_2
*I *1093:X O *D sky130_fd_sc_hd__or4b_2
*CAP
1 *1146:B1 0.00032654
2 *1198:A2 2.96931e-05
3 *1175:A2 0
4 *1095:C 0.00013056
5 *1098:A 0
6 *1188:A2 0
7 *1151:A2 3.14662e-05
8 *1093:X 0.000776933
9 *116:80 0.000122286
10 *116:63 0.00040083
11 *116:50 0.000205794
12 *116:48 0.00062566
13 *116:29 0.00121976
14 *116:18 0.00123907
15 *116:10 0.00162947
16 *1095:C *1095:A 5.55784e-05
17 *1095:C *121:8 0.000221997
18 *1146:B1 *1146:A2 1.52529e-05
19 *1146:B1 *369:50 0.000179624
20 *1151:A2 *131:12 6.17437e-06
21 *1198:A2 *1098:B 4.17736e-05
22 *1198:A2 *368:108 6.17437e-06
23 *116:10 *1115:B 0.000522704
24 *116:10 *369:50 4.22172e-05
25 *116:18 *1101:C 0.000395745
26 *116:18 *1151:B1 4.59441e-05
27 *116:18 *122:10 1.23172e-05
28 *116:18 *123:8 0.000214259
29 *116:18 *131:12 0.000113153
30 *116:18 *307:27 0.000380342
31 *116:18 *340:49 1.12487e-05
32 *116:18 *344:14 5.01247e-05
33 *116:18 *344:16 5.58661e-05
34 *116:18 *344:18 9.90482e-05
35 *116:29 *1151:B1 4.6318e-06
36 *116:29 *1184:B2 3.884e-05
37 *116:29 *1293:CLK 0
38 *116:29 *120:8 1.37136e-05
39 *116:29 *178:8 0
40 *116:29 *328:10 0
41 *116:29 *344:14 8.83237e-05
42 *116:29 *355:16 0
43 *116:48 *271:45 1.02561e-05
44 *116:48 *368:108 2.05503e-05
45 *116:50 *1098:B 0.000141052
46 *116:50 *271:49 1.40958e-05
47 *116:63 *1098:B 6.68303e-05
48 *116:63 *1198:A1 0
49 *116:63 *121:8 0.000185434
50 *116:63 *271:49 9.40782e-05
51 *116:80 *1175:A1 5.67058e-05
52 *116:80 *1184:A2 5.50049e-05
53 *116:80 *239:153 8.16253e-05
54 *116:80 *271:45 0
55 *1092:C *116:10 3.7122e-06
56 *1093:A *116:10 2.95526e-05
57 *1093:C *116:10 2.95526e-05
58 *1146:A1 *1146:B1 1.61385e-05
59 *1146:A1 *116:18 0.000139882
60 *41:10 *116:29 0
61 *43:16 *1151:A2 5.50106e-05
62 *97:10 *116:18 0.000207462
*RES
1 *1093:X *116:10 35.2007 
2 *116:10 *116:18 30.7014 
3 *116:18 *1151:A2 38.6214 
4 *116:18 *116:29 11.4136 
5 *116:29 *1188:A2 38 
6 *116:29 *116:48 32.3216 
7 *116:48 *116:50 1.57429 
8 *116:50 *1098:A 23 
9 *116:50 *116:63 5.09571 
10 *116:63 *1095:C 26.0243 
11 *116:63 *116:80 32.8793 
12 *116:80 *1175:A2 23 
13 *116:48 *1198:A2 23.6214 
14 *116:10 *1146:B1 28.9864 
*END

*D_NET *117 0.00632567
*CONN
*I *1154:C I *D sky130_fd_sc_hd__and3_2
*I *1155:C I *D sky130_fd_sc_hd__nand3_2
*I *1094:X O *D sky130_fd_sc_hd__and4_2
*CAP
1 *1154:C 8.03554e-05
2 *1155:C 8.03554e-05
3 *1094:X 0.000503343
4 *117:20 0.00107757
5 *117:12 0.00158092
6 *1154:C *1154:B 7.37897e-05
7 *1154:C *1190:C 4.5041e-05
8 *1154:C *266:117 6.92088e-05
9 *117:12 *239:124 0
10 *117:20 *1099:A2 4.95081e-05
11 *117:20 *1155:A 5.50106e-05
12 *117:20 *1430:A 0.00026916
13 *117:20 *130:10 0.000110524
14 *117:20 *169:10 0.000147271
15 *117:20 *169:18 0
16 *117:20 *239:122 0.000321343
17 *117:20 *239:124 7.29657e-05
18 *117:20 *264:10 1.52259e-05
19 *117:20 *266:44 0.000141879
20 *117:20 *266:117 0.000304257
21 *117:20 *271:59 4.21281e-05
22 *117:20 *272:27 0.000110659
23 *117:20 *300:42 4.03752e-05
24 *117:20 *340:8 0.00014411
25 *117:20 *367:51 9.85586e-06
26 *117:20 *368:27 3.68514e-05
27 *117:20 *368:36 7.31043e-06
28 *117:20 *368:49 0.000188926
29 *117:20 *370:91 0
30 *1092:A *117:12 0.000113398
31 *42:10 *117:20 0.000174407
32 *96:10 *117:20 0.000166522
33 *110:12 *117:12 2.56281e-05
34 *111:8 *117:12 0.000267768
*RES
1 *1094:X *117:12 46.8761 
2 *117:12 *117:20 43.4718 
3 *117:20 *1155:C 23 
4 *1155:C *1154:C 49.2107 
*END

*D_NET *118 0.0012846
*CONN
*I *1099:B1 I *D sky130_fd_sc_hd__a31o_2
*I *1095:X O *D sky130_fd_sc_hd__and3_2
*CAP
1 *1099:B1 0
2 *1095:X 0.00041232
3 *118:10 0.00041232
4 *118:10 *1099:A3 0.000163352
5 *118:10 *121:8 0.000218493
6 *118:10 *272:27 7.81176e-05
*RES
1 *1095:X *118:10 44.6907 
2 *118:10 *1099:B1 38 
*END

*D_NET *119 0.00800721
*CONN
*I *1097:B I *D sky130_fd_sc_hd__or2_2
*I *1185:B I *D sky130_fd_sc_hd__nand2_2
*I *1196:A1 I *D sky130_fd_sc_hd__o21bai_2
*I *1197:A2 I *D sky130_fd_sc_hd__o311a_2
*I *1206:A1 I *D sky130_fd_sc_hd__o21bai_2
*I *1207:A2 I *D sky130_fd_sc_hd__o311a_2
*I *1096:Y O *D sky130_fd_sc_hd__nand2_2
*CAP
1 *1097:B 8.29085e-05
2 *1185:B 0.000154563
3 *1196:A1 0.000198985
4 *1197:A2 0
5 *1206:A1 3.76283e-05
6 *1207:A2 0.000116263
7 *1096:Y 0.000175437
8 *119:50 0.000949732
9 *119:14 0.000349334
10 *119:12 0.000195443
11 *119:10 0.000569051
12 *119:6 0.00125776
13 *1185:B *1068:A 6.32688e-05
14 *1185:B *120:8 0
15 *1185:B *179:8 6.6869e-05
16 *1185:B *179:25 2.71291e-05
17 *1185:B *246:20 0
18 *1185:B *355:16 5.03449e-05
19 *1196:A1 *1170:A 0
20 *1196:A1 *1196:A2 0
21 *1196:A1 *158:43 2.93845e-05
22 *1196:A1 *184:10 8.05936e-05
23 *1196:A1 *267:48 0
24 *1196:A1 *269:57 1.79416e-05
25 *1206:A1 *267:42 1.14154e-05
26 *1207:A2 *185:62 0.000487147
27 *1207:A2 *190:8 0.00031495
28 *1207:A2 *267:42 8.2832e-05
29 *119:6 *269:38 0.000570587
30 *119:6 *353:40 0.000272458
31 *119:10 *179:89 4.84148e-05
32 *119:10 *186:10 0.000151899
33 *119:10 *269:38 0.000138727
34 *119:10 *269:57 0.000616937
35 *119:10 *354:75 1.12487e-05
36 *119:14 *1197:A1 0.000120867
37 *119:14 *267:42 1.57571e-05
38 *119:14 *269:57 9.58714e-05
39 *119:50 *1157:A2 0
40 *119:50 *1157:C1 0
41 *119:50 *179:25 0.000300872
42 *119:50 *179:89 0
43 *119:50 *246:20 0
44 *58:10 *119:50 0.000197479
45 *61:10 *1196:A1 7.75329e-06
46 *93:41 *1097:B 0.000139352
*RES
1 *1096:Y *119:6 29.815 
2 *119:6 *119:10 25.3571 
3 *119:10 *119:12 15 
4 *119:12 *119:14 3.95643 
5 *119:14 *1207:A2 28.8621 
6 *119:14 *1206:A1 23.8493 
7 *119:12 *1197:A2 23 
8 *119:10 *1196:A1 41.9357 
9 *119:6 *119:50 29.8936 
10 *119:50 *1185:B 41.6664 
11 *119:50 *1097:B 39.5743 
*END

*D_NET *120 0.00214916
*CONN
*I *1098:B I *D sky130_fd_sc_hd__nor2_2
*I *1184:B2 I *D sky130_fd_sc_hd__a22o_2
*I *1097:X O *D sky130_fd_sc_hd__or2_2
*CAP
1 *1098:B 0.000403133
2 *1184:B2 8.06954e-05
3 *1097:X 0.000237363
4 *120:8 0.000721192
5 *1098:B *1188:A1 1.68748e-05
6 *1098:B *1188:B1 8.17328e-05
7 *1098:B *1198:B1 0.00010947
8 *1098:B *368:108 1.5769e-05
9 *1184:B2 *178:8 1.47563e-05
10 *1184:B2 *355:31 0.000108681
11 *120:8 *1190:B 9.48381e-06
12 *120:8 *179:8 0
13 *120:8 *185:8 0
14 *120:8 *271:45 0
15 *120:8 *355:31 4.7803e-05
16 *120:8 *368:108 0
17 *1185:B *120:8 0
18 *1198:A2 *1098:B 4.17736e-05
19 *116:29 *1184:B2 3.884e-05
20 *116:29 *120:8 1.37136e-05
21 *116:50 *1098:B 0.000141052
22 *116:63 *1098:B 6.68303e-05
*RES
1 *1097:X *120:8 41.3143 
2 *120:8 *1184:B2 39.9057 
3 *120:8 *1098:B 45.4779 
*END

*D_NET *121 0.00391081
*CONN
*I *1099:A3 I *D sky130_fd_sc_hd__a31o_2
*I *1108:B I *D sky130_fd_sc_hd__or3b_2
*I *1098:Y O *D sky130_fd_sc_hd__nor2_2
*CAP
1 *1099:A3 0.00015552
2 *1108:B 0.000397626
3 *1098:Y 0.000327356
4 *121:8 0.000880502
5 *1099:A3 *1099:A2 9.41704e-05
6 *1099:A3 *246:56 5.3304e-05
7 *1099:A3 *266:98 6.17437e-06
8 *1099:A3 *266:102 4.21281e-05
9 *1099:A3 *272:27 1.80023e-05
10 *1099:A3 *337:10 0.000207498
11 *1108:B *1105:C 0
12 *1108:B *129:8 9.32509e-05
13 *1108:B *266:38 4.6318e-06
14 *1108:B *271:12 0
15 *1108:B *272:27 2.82307e-05
16 *1108:B *337:10 0.000169674
17 *1108:B *367:27 0
18 *1108:B *368:27 1.19692e-05
19 *1108:B *368:36 1.69668e-05
20 *1108:B *368:49 0
21 *1108:B *370:14 0.000210649
22 *121:8 *1095:A 2.98648e-05
23 *121:8 *271:49 0.000212319
24 *121:8 *271:59 2.93747e-05
25 *121:8 *370:14 1.59094e-05
26 *121:8 *370:87 0.000116409
27 *1095:C *121:8 0.000221997
28 *101:10 *1108:B 0
29 *116:63 *121:8 0.000185434
30 *118:10 *1099:A3 0.000163352
31 *118:10 *121:8 0.000218493
*RES
1 *1098:Y *121:8 48.15 
2 *121:8 *1108:B 47.6529 
3 *121:8 *1099:A3 42.5364 
*END

*D_NET *122 0.00226191
*CONN
*I *1151:B1 I *D sky130_fd_sc_hd__o2111a_2
*I *1101:C I *D sky130_fd_sc_hd__or3_2
*I *1100:X O *D sky130_fd_sc_hd__or2_2
*CAP
1 *1151:B1 0.00015977
2 *1101:C 0.000263711
3 *1100:X 2.96833e-05
4 *122:10 0.000453165
5 *1101:C *1101:B 4.05463e-05
6 *1101:C *132:26 0.00014411
7 *1101:C *133:77 3.89103e-05
8 *1101:C *346:25 5.75756e-06
9 *1151:B1 *1147:A 2.11887e-05
10 *1151:B1 *1151:D1 3.96053e-05
11 *1151:B1 *131:12 0.000108681
12 *122:10 *1150:C1 5.3304e-05
13 *122:10 *307:27 5.3304e-05
14 *1146:A1 *1101:C 1.13812e-05
15 *97:10 *1101:C 0.000218843
16 *97:38 *1101:C 0.000136609
17 *97:38 *1151:B1 2.47015e-05
18 *116:18 *1101:C 0.000395745
19 *116:18 *1151:B1 4.59441e-05
20 *116:18 *122:10 1.23172e-05
21 *116:29 *1151:B1 4.6318e-06
*RES
1 *1100:X *122:10 38.9425 
2 *122:10 *1101:C 47.0418 
3 *122:10 *1151:B1 41.7596 
*END

*D_NET *123 0.0017069
*CONN
*I *1102:D I *D sky130_fd_sc_hd__or4_2
*I *1101:X O *D sky130_fd_sc_hd__or3_2
*CAP
1 *1102:D 0.000421093
2 *1101:X 0.000202506
3 *123:8 0.0006236
4 *123:8 *1115:B 0.000184634
5 *123:8 *133:10 4.8361e-05
6 *123:8 *152:10 2.35118e-06
7 *123:8 *344:18 1.0092e-05
8 *116:18 *123:8 0.000214259
*RES
1 *1101:X *123:8 43.075 
2 *123:8 *1102:D 45.7679 
*END

*D_NET *124 0.0106769
*CONN
*I *1150:A3 I *D sky130_fd_sc_hd__o311a_2
*I *1152:A3 I *D sky130_fd_sc_hd__o311a_2
*I *1103:A I *D sky130_fd_sc_hd__inv_2
*I *1110:A2 I *D sky130_fd_sc_hd__o31ai_2
*I *1106:A2 I *D sky130_fd_sc_hd__a21oi_2
*I *1102:X O *D sky130_fd_sc_hd__or4_2
*CAP
1 *1150:A3 5.75112e-05
2 *1152:A3 0
3 *1103:A 0
4 *1110:A2 0.000531052
5 *1106:A2 0.000170456
6 *1102:X 0.0004321
7 *124:78 0.000520097
8 *124:34 0.000897086
9 *124:30 0.000322701
10 *124:28 0.000868839
11 *124:18 0.000995534
12 *124:14 0.0011485
13 *1106:A2 *126:8 0.000138718
14 *1106:A2 *127:14 0
15 *1106:A2 *300:8 7.84431e-05
16 *1106:A2 *300:18 0
17 *1110:A2 *126:8 0.000169683
18 *1110:A2 *127:14 0
19 *1110:A2 *129:16 0
20 *1110:A2 *244:91 7.80354e-05
21 *1110:A2 *300:18 0
22 *1150:A3 *1150:A2 5.50106e-05
23 *1150:A3 *1364:A 9.91895e-05
24 *1150:A3 *370:60 9.84851e-05
25 *124:14 *239:124 0.000108818
26 *124:18 *264:22 5.67058e-05
27 *124:18 *340:19 9.91798e-05
28 *124:28 *1111:C1 9.85586e-06
29 *124:28 *1344:CLK 0.000413052
30 *124:28 *145:8 0
31 *124:28 *243:40 0.000277705
32 *124:28 *264:22 0.000472309
33 *124:28 *339:10 1.86869e-05
34 *124:28 *367:14 0
35 *124:30 *125:12 0.000400198
36 *124:30 *273:122 1.72202e-05
37 *124:30 *365:10 2.30292e-05
38 *124:30 *367:6 3.71251e-05
39 *124:30 *367:27 5.10805e-05
40 *124:34 *273:122 0.000342263
41 *124:34 *365:10 0.000176484
42 *124:78 *239:122 6.51012e-05
43 *124:78 *239:124 0.000106527
44 *124:78 *243:10 1.04196e-05
45 *124:78 *370:22 1.83667e-05
46 *124:78 *370:60 9.48381e-06
47 *1094:D *124:14 0.000163256
48 *1306:D *1110:A2 0.000280866
49 *3:30 *1110:A2 4.61851e-06
50 *27:12 *1110:A2 0
51 *40:10 *124:78 8.4047e-05
52 *42:10 *124:18 1.32939e-05
53 *54:8 *1110:A2 3.70094e-05
54 *111:8 *124:14 0.000192342
55 *114:10 *124:14 0.000138747
56 *115:8 *124:14 0.000219988
57 *115:8 *124:78 0.000167708
*RES
1 *1102:X *124:14 48.005 
2 *124:14 *124:18 19.4329 
3 *124:18 *124:28 45.1836 
4 *124:28 *124:30 4.90929 
5 *124:30 *124:34 21.815 
6 *124:34 *1106:A2 41.4696 
7 *124:34 *1110:A2 49.3721 
8 *124:30 *1103:A 23 
9 *124:18 *1152:A3 23 
10 *124:14 *124:78 39.28 
11 *124:78 *1150:A3 40.0507 
*END

*D_NET *125 0.00218222
*CONN
*I *1112:A3 I *D sky130_fd_sc_hd__a31o_2
*I *1103:Y O *D sky130_fd_sc_hd__inv_2
*CAP
1 *1112:A3 0
2 *1103:Y 0.000391609
3 *125:12 0.000391609
4 *125:12 *1151:A1 3.91386e-05
5 *125:12 *1344:CLK 0.00020775
6 *125:12 *266:38 8.84817e-06
7 *125:12 *273:122 0.000570587
8 *1344:D *125:12 0.00017248
9 *124:30 *125:12 0.000400198
*RES
1 *1103:Y *125:12 34.2893 
2 *125:12 *1112:A3 23 
*END

*D_NET *126 0.00278788
*CONN
*I *1111:B1 I *D sky130_fd_sc_hd__a221o_2
*I *1104:Y O *D sky130_fd_sc_hd__nand2b_2
*CAP
1 *1111:B1 0
2 *1104:Y 0.000177756
3 *126:14 0.000779381
4 *126:8 0.000957137
5 *126:8 *127:14 0
6 *126:14 *1111:B2 0.000103754
7 *126:14 *127:14 0.000177899
8 *126:14 *300:42 0.000151153
9 *126:14 *367:14 0.000128391
10 *1106:A2 *126:8 0.000138718
11 *1110:A2 *126:8 0.000169683
12 *115:24 *126:14 4.00259e-06
*RES
1 *1104:Y *126:8 42.0186 
2 *126:8 *126:14 27.0764 
3 *126:14 *1111:B1 23 
*END

*D_NET *127 0.00489961
*CONN
*I *1174:B1 I *D sky130_fd_sc_hd__a21oi_2
*I *1176:A2 I *D sky130_fd_sc_hd__o211a_2
*I *1106:B1 I *D sky130_fd_sc_hd__a21oi_2
*I *1105:X O *D sky130_fd_sc_hd__and3b_2
*CAP
1 *1174:B1 0
2 *1176:A2 0
3 *1106:B1 0
4 *1105:X 0
5 *127:35 0.000213658
6 *127:23 0.000633154
7 *127:14 0.000726701
8 *127:4 0.0011462
9 *127:14 *1105:B 2.9938e-05
10 *127:14 *300:8 5.67058e-05
11 *127:14 *300:42 0.000274078
12 *127:14 *311:10 0.000149279
13 *127:14 *365:10 0
14 *127:14 *365:25 0
15 *127:14 *366:6 0.000250617
16 *127:14 *369:10 9.28078e-06
17 *127:14 *369:27 6.18826e-05
18 *127:23 *1105:A_N 2.93845e-05
19 *127:23 *1105:B 7.73389e-05
20 *127:23 *1407:A 5.90675e-06
21 *127:23 *168:10 5.67058e-05
22 *127:23 *266:81 0.000125488
23 *127:23 *271:12 5.70419e-05
24 *127:23 *271:19 0.00028305
25 *127:23 *368:53 5.3304e-05
26 *127:23 *368:65 8.39276e-05
27 *127:23 *370:14 4.2062e-05
28 *127:35 *168:10 2.32101e-05
29 *127:35 *239:122 9.18423e-05
30 *127:35 *368:65 0.000100005
31 *127:35 *370:22 0
32 *1106:A2 *127:14 0
33 *1110:A2 *127:14 0
34 *27:12 *127:14 8.51432e-05
35 *101:25 *127:35 5.58123e-05
36 *126:8 *127:14 0
37 *126:14 *127:14 0.000177899
*RES
1 *1105:X *127:4 23 
2 *127:4 *127:14 48.0629 
3 *127:14 *1106:B1 23 
4 *127:4 *127:23 11.1236 
5 *127:23 *127:35 34.35 
6 *127:35 *1176:A2 23 
7 *127:23 *1174:B1 23 
*END

*D_NET *128 0.000409621
*CONN
*I *1107:B I *D sky130_fd_sc_hd__nor2_2
*I *1106:Y O *D sky130_fd_sc_hd__a21oi_2
*CAP
1 *1107:B 0.000177305
2 *1106:Y 0.000177305
3 *1107:B *248:45 0
4 *1107:B *300:18 5.50106e-05
*RES
1 *1106:Y *1107:B 49.045 
*END

*D_NET *129 0.00286642
*CONN
*I *1110:B1 I *D sky130_fd_sc_hd__o31ai_2
*I *1108:X O *D sky130_fd_sc_hd__or3b_2
*CAP
1 *1110:B1 3.76849e-05
2 *1108:X 0.000182239
3 *129:16 0.000970201
4 *129:8 0.00111476
5 *129:8 *266:73 3.56537e-05
6 *129:8 *266:81 0
7 *129:8 *271:12 2.29192e-05
8 *129:16 *239:10 1.55869e-05
9 *129:16 *239:23 0.000118332
10 *129:16 *239:105 8.31545e-05
11 *129:16 *239:110 4.44424e-05
12 *1108:B *129:8 9.32509e-05
13 *1110:A2 *129:16 0
14 *1348:A *1110:B1 5.50049e-05
15 *1348:A *129:16 2.3034e-05
16 *27:12 *1110:B1 2.4754e-05
17 *27:12 *129:16 4.54033e-05
*RES
1 *1108:X *129:8 42.0186 
2 *129:8 *129:16 43.7336 
3 *129:16 *1110:B1 39.0979 
*END

*D_NET *130 0.00134998
*CONN
*I *1112:B1 I *D sky130_fd_sc_hd__a31o_2
*I *1111:X O *D sky130_fd_sc_hd__a221o_2
*CAP
1 *1112:B1 0
2 *1111:X 0.000419272
3 *130:10 0.000419272
4 *130:10 *239:122 5.06189e-05
5 *130:10 *300:42 4.5051e-05
6 *130:10 *370:26 3.28609e-05
7 *115:24 *130:10 0.000272377
8 *117:20 *130:10 0.000110524
*RES
1 *1111:X *130:10 44.9393 
2 *130:10 *1112:B1 38 
*END

*D_NET *131 0.00143833
*CONN
*I *1148:B I *D sky130_fd_sc_hd__and2_2
*I *1151:C1 I *D sky130_fd_sc_hd__o2111a_2
*I *1113:Y O *D sky130_fd_sc_hd__nand2_2
*CAP
1 *1148:B 0.000196095
2 *1151:C1 0
3 *1113:Y 0
4 *131:12 0.000171649
5 *131:4 0.000367744
6 *1148:B *1113:B 0.000137651
7 *1148:B *1150:C1 1.03836e-05
8 *1148:B *142:38 0.000181125
9 *1148:B *307:27 5.50049e-05
10 *1151:A2 *131:12 6.17437e-06
11 *1151:B1 *131:12 0.000108681
12 *43:16 *131:12 4.56219e-05
13 *97:38 *1148:B 4.5051e-05
14 *116:18 *131:12 0.000113153
*RES
1 *1113:Y *131:4 23 
2 *131:4 *131:12 33.1279 
3 *131:12 *1151:C1 23 
4 *131:4 *1148:B 27.4536 
*END

*D_NET *132 0.00147717
*CONN
*I *1149:A I *D sky130_fd_sc_hd__nor2_2
*I *1144:B I *D sky130_fd_sc_hd__nor2_2
*I *1114:X O *D sky130_fd_sc_hd__and3_2
*CAP
1 *1149:A 0.000181573
2 *1144:B 0
3 *1114:X 0.000271917
4 *132:26 0.000224787
5 *132:10 0.000228703
6 *132:10 *133:77 0.000112372
7 *132:10 *153:10 2.54714e-05
8 *132:10 *243:71 0.000114074
9 *1101:C *132:26 0.00014411
10 *97:38 *132:10 3.22879e-05
11 *97:38 *132:26 0.000141879
*RES
1 *1114:X *132:10 42.3086 
2 *132:10 *1144:B 38 
3 *1114:X *132:26 39.9057 
4 *132:26 *1149:A 40.5271 
*END

*D_NET *133 0.00684411
*CONN
*I *1145:A I *D sky130_fd_sc_hd__nor2_2
*I *1142:A2 I *D sky130_fd_sc_hd__o21ai_2
*I *1116:B I *D sky130_fd_sc_hd__and2_2
*I *1138:A1 I *D sky130_fd_sc_hd__a21o_2
*I *1118:B I *D sky130_fd_sc_hd__and3_2
*I *1119:C I *D sky130_fd_sc_hd__and4_2
*I *1115:X O *D sky130_fd_sc_hd__and4_2
*CAP
1 *1145:A 0
2 *1142:A2 0.000233454
3 *1116:B 0
4 *1138:A1 0.000155722
5 *1118:B 0
6 *1119:C 0
7 *1115:X 1.82709e-05
8 *133:77 0.000432201
9 *133:47 0.000233454
10 *133:24 0.000347847
11 *133:16 0.000454577
12 *133:14 0.000382393
13 *133:10 0.000701758
14 *133:6 0.00103229
15 *1138:A1 *1138:A2 0.000185428
16 *1138:A1 *349:16 2.91168e-05
17 *1142:A2 *134:8 0.000101349
18 *1142:A2 *152:10 5.50049e-05
19 *1142:A2 *264:96 3.17634e-05
20 *133:6 *1115:B 2.95423e-05
21 *133:6 *1115:D 5.5792e-05
22 *133:10 *1089:D 0
23 *133:10 *1115:B 1.16551e-05
24 *133:10 *135:8 4.41619e-05
25 *133:10 *152:10 0
26 *133:10 *347:8 0
27 *133:10 *369:50 3.673e-05
28 *133:14 *1142:B1 0
29 *133:14 *135:8 2.72055e-05
30 *133:14 *264:92 8.4047e-05
31 *133:16 *1138:A2 1.22822e-05
32 *133:16 *264:92 8.43466e-05
33 *133:24 *1119:B 9.23553e-05
34 *133:24 *1119:D 0.000370869
35 *133:24 *135:8 0.000104869
36 *133:24 *264:92 5.3304e-05
37 *133:24 *298:8 6.68793e-05
38 *133:24 *349:47 3.9185e-05
39 *133:77 *1101:B 8.71386e-05
40 *133:77 *1115:B 1.57659e-05
41 *133:77 *1115:D 0.000353322
42 *133:77 *1146:A2 4.21921e-05
43 *133:77 *1147:A 5.67058e-05
44 *133:77 *243:71 2.72055e-05
45 *133:77 *346:25 0.000160125
46 *133:77 *369:50 0.000357141
47 *1101:C *133:77 3.89103e-05
48 *97:38 *133:77 3.70187e-05
49 *123:8 *133:10 4.8361e-05
50 *132:10 *133:77 0.000112372
*RES
1 *1115:X *133:6 23.6214 
2 *133:6 *133:10 26.4136 
3 *133:10 *133:14 17.2579 
4 *133:14 *133:16 1.57429 
5 *133:16 *133:24 37.8093 
6 *133:24 *1119:C 23 
7 *133:16 *1118:B 23 
8 *133:14 *1138:A1 26.8736 
9 *133:10 *133:47 15 
10 *133:47 *1116:B 23 
11 *133:47 *1142:A2 28.2407 
12 *133:6 *133:77 41.31 
13 *133:77 *1145:A 23 
*END

*D_NET *134 0.00303847
*CONN
*I *1141:A2 I *D sky130_fd_sc_hd__a21oi_2
*I *1143:A I *D sky130_fd_sc_hd__nor2_2
*I *1140:A2 I *D sky130_fd_sc_hd__o21ai_2
*I *1116:X O *D sky130_fd_sc_hd__and2_2
*CAP
1 *1141:A2 0
2 *1143:A 0.000419765
3 *1140:A2 0.000233122
4 *1116:X 0.000154805
5 *134:12 0.000897848
6 *134:8 0.000399767
7 *1143:A *1143:B 5.58003e-05
8 *1143:A *264:126 1.00286e-05
9 *134:8 *152:10 3.22879e-05
10 *134:8 *264:96 9.84794e-05
11 *134:8 *264:126 0.000402806
12 *134:12 *152:10 0
13 *134:12 *242:106 9.5912e-05
14 *134:12 *264:126 0.000136498
15 *134:12 *304:10 0
16 *1142:A2 *134:8 0.000101349
*RES
1 *1116:X *134:8 28.8829 
2 *134:8 *134:12 20.7793 
3 *134:12 *1140:A2 41.9771 
4 *134:12 *1143:A 45.0636 
5 *134:8 *1141:A2 23 
*END

*D_NET *135 0.00266442
*CONN
*I *1138:A2 I *D sky130_fd_sc_hd__a21o_2
*I *1118:C I *D sky130_fd_sc_hd__and3_2
*I *1119:D I *D sky130_fd_sc_hd__and4_2
*I *1117:X O *D sky130_fd_sc_hd__and2_2
*CAP
1 *1138:A2 8.28902e-05
2 *1118:C 0
3 *1119:D 0.000278431
4 *1117:X 0.00029162
5 *135:23 8.28902e-05
6 *135:8 0.000570051
7 *1119:D *1119:B 3.71369e-05
8 *1119:D *1139:A_N 0.000109595
9 *1119:D *1139:B 0
10 *1119:D *350:12 6.7911e-05
11 *1138:A2 *264:92 5.41385e-05
12 *1138:A2 *349:16 0.000228903
13 *1138:A2 *349:26 6.39268e-05
14 *135:8 *1089:D 0
15 *135:8 *1139:B 0
16 *135:8 *264:92 5.21127e-05
17 *135:8 *349:47 0
18 *1138:A1 *1138:A2 0.000185428
19 *133:10 *135:8 4.41619e-05
20 *133:14 *135:8 2.72055e-05
21 *133:16 *1138:A2 1.22822e-05
22 *133:24 *1119:D 0.000370869
23 *133:24 *135:8 0.000104869
*RES
1 *1117:X *135:8 43.4271 
2 *135:8 *1119:D 44.67 
3 *135:8 *135:23 15 
4 *135:23 *1118:C 23 
5 *135:23 *1138:A2 26.9771 
*END

*D_NET *136 0.00223255
*CONN
*I *1139:A_N I *D sky130_fd_sc_hd__and3b_2
*I *1136:A2 I *D sky130_fd_sc_hd__o21ai_2
*I *1118:X O *D sky130_fd_sc_hd__and3_2
*CAP
1 *1139:A_N 0.000382778
2 *1136:A2 4.93783e-05
3 *1118:X 0.000448337
4 *136:10 0.000880493
5 *1136:A2 *1119:B 0
6 *1136:A2 *137:20 0
7 *1139:A_N *1136:A1 0.000139346
8 *1139:A_N *137:10 3.53115e-05
9 *136:10 *1119:B 0
10 *136:10 *1136:B1 0
11 *136:10 *137:20 0
12 *136:10 *264:92 4.79612e-05
13 *136:10 *349:26 9.84851e-05
14 *136:10 *350:37 4.08641e-05
15 *1119:D *1139:A_N 0.000109595
*RES
1 *1118:X *136:10 45.3743 
2 *136:10 *1136:A2 38.8493 
3 *136:10 *1139:A_N 45.3329 
*END

*D_NET *137 0.00538599
*CONN
*I *1137:A I *D sky130_fd_sc_hd__nor2_2
*I *1135:A2 I *D sky130_fd_sc_hd__a21oi_2
*I *1134:A2 I *D sky130_fd_sc_hd__o21ai_2
*I *1121:D I *D sky130_fd_sc_hd__and4_2
*I *1120:C I *D sky130_fd_sc_hd__and3_2
*I *1132:A2 I *D sky130_fd_sc_hd__a21o_2
*I *1119:X O *D sky130_fd_sc_hd__and4_2
*CAP
1 *1137:A 0
2 *1135:A2 0
3 *1134:A2 9.24459e-05
4 *1121:D 0
5 *1120:C 4.21758e-05
6 *1132:A2 0
7 *1119:X 0.000220341
8 *137:56 0.000170923
9 *137:48 0.000287913
10 *137:37 0.000173583
11 *137:26 0.000334298
12 *137:20 0.00101976
13 *137:10 0.00101267
14 *1120:C *264:58 2.02872e-05
15 *1120:C *352:25 6.6426e-05
16 *1134:A2 *264:58 0.000258245
17 *1134:A2 *352:38 9.5877e-05
18 *137:10 *1136:A1 5.41288e-05
19 *137:10 *1136:B1 5.67058e-05
20 *137:10 *1137:B 9.84851e-05
21 *137:20 *1136:B1 0.00015982
22 *137:20 *1288:CLK 7.81887e-05
23 *137:20 *242:24 0.000128893
24 *137:20 *286:14 5.83407e-05
25 *137:26 *147:8 0
26 *137:26 *242:24 0.000101899
27 *137:26 *286:14 0
28 *137:26 *352:10 3.93659e-05
29 *137:37 *1132:A1 0.000168754
30 *137:37 *242:18 6.50802e-05
31 *137:37 *242:24 2.22079e-05
32 *137:37 *351:43 9.168e-05
33 *137:37 *352:10 6.02277e-06
34 *137:48 *264:58 9.84851e-05
35 *137:48 *352:25 1.56762e-05
36 *137:48 *352:38 5.50049e-05
37 *137:56 *1121:C 5.50106e-05
38 *137:56 *242:18 0.000136486
39 *137:56 *351:43 6.05961e-05
40 *1136:A2 *137:20 0
41 *1139:A_N *137:10 3.53115e-05
42 *1287:D *137:20 4.9054e-06
43 *136:10 *137:20 0
*RES
1 *1119:X *137:10 28.075 
2 *137:10 *137:20 42.7807 
3 *137:20 *137:26 20.1371 
4 *137:26 *1132:A2 38 
5 *137:26 *137:37 18.6664 
6 *137:37 *1120:C 24.1186 
7 *137:37 *137:48 1.09786 
8 *137:48 *137:56 33.0036 
9 *137:56 *1121:D 23 
10 *137:48 *1134:A2 26.0036 
11 *137:20 *1135:A2 23 
12 *137:10 *1137:A 23 
*END

*D_NET *138 0.00178517
*CONN
*I *1130:A2 I *D sky130_fd_sc_hd__o21ai_2
*I *1133:A_N I *D sky130_fd_sc_hd__and3b_2
*I *1120:X O *D sky130_fd_sc_hd__and3_2
*CAP
1 *1130:A2 0.000178184
2 *1133:A_N 0.000303839
3 *1120:X 0.000110667
4 *138:8 0.00059269
5 *1130:A2 *1133:B 0
6 *1130:A2 *264:39 0
7 *1130:A2 *264:41 0
8 *1130:A2 *341:8 0
9 *1130:A2 *351:43 0
10 *1130:A2 *352:25 4.94237e-05
11 *1133:A_N *1133:B 0
12 *1133:A_N *147:8 0.000415752
13 *1133:A_N *352:10 1.02387e-05
14 *1133:A_N *352:25 4.83941e-05
15 *138:8 *264:58 7.59794e-05
*RES
1 *1120:X *138:8 39.5743 
2 *138:8 *1133:A_N 45.8921 
3 *138:8 *1130:A2 41.6664 
*END

*D_NET *139 0.00309088
*CONN
*I *1131:A I *D sky130_fd_sc_hd__nor2_2
*I *1126:A3 I *D sky130_fd_sc_hd__a31o_2
*I *1122:B I *D sky130_fd_sc_hd__nand2_2
*I *1128:B I *D sky130_fd_sc_hd__or2_2
*I *1121:X O *D sky130_fd_sc_hd__and4_2
*CAP
1 *1131:A 0
2 *1126:A3 0
3 *1122:B 0.000205855
4 *1128:B 3.61557e-05
5 *1121:X 0.000202049
6 *139:22 0.000499447
7 *139:16 0.000499934
8 *139:12 0.000268256
9 *139:8 0.000227808
10 *1122:B *1122:A 0.000141954
11 *1122:B *1129:A 0.000141954
12 *1122:B *140:8 0
13 *1122:B *145:8 6.28488e-05
14 *1122:B *264:33 0
15 *1122:B *342:19 2.35118e-06
16 *1128:B *1330:CLK 2.95423e-05
17 *139:8 *146:10 0.000100101
18 *139:8 *341:8 8.78864e-05
19 *139:8 *343:31 4.41821e-06
20 *139:12 *1088:A 5.5792e-05
21 *139:16 *1088:A 0.000162571
22 *139:16 *282:14 4.46854e-05
23 *139:22 *1126:A1 1.85495e-05
24 *139:22 *1282:CLK 6.68186e-05
25 *139:22 *282:14 5.82853e-05
26 *139:22 *342:19 4.91627e-05
27 *139:22 *342:21 4.16051e-06
28 *30:10 *139:16 2.10502e-05
29 *30:10 *139:22 9.92394e-05
*RES
1 *1121:X *139:8 42.7229 
2 *139:8 *139:12 15.6214 
3 *139:12 *139:16 4.93 
4 *139:16 *139:22 21.4007 
5 *139:22 *1128:B 38.6214 
6 *139:22 *1122:B 43.2407 
7 *139:16 *1126:A3 23 
8 *139:12 *1131:A 23 
*END

*D_NET *140 0.00210752
*CONN
*I *1129:A I *D sky130_fd_sc_hd__and3_2
*I *1127:A2 I *D sky130_fd_sc_hd__a21oi_2
*I *1122:Y O *D sky130_fd_sc_hd__nand2_2
*CAP
1 *1129:A 0.000189528
2 *1127:A2 0.000233027
3 *1122:Y 0.000567617
4 *140:8 0.000611117
5 *1129:A *1122:A 7.27182e-05
6 *140:8 *282:14 1.50326e-05
7 *1122:B *1129:A 0.000141954
8 *1122:B *140:8 0
9 *1127:A1 *1127:A2 8.05929e-05
10 *30:10 *1127:A2 5.82853e-05
11 *98:8 *140:8 0.00013765
*RES
1 *1122:Y *140:8 45.54 
2 *140:8 *1127:A2 41.8529 
3 *1122:Y *1129:A 49.9564 
*END

*D_NET *141 0.000983366
*CONN
*I *1187:B I *D sky130_fd_sc_hd__or2_2
*I *1124:A2 I *D sky130_fd_sc_hd__o21a_2
*I *1123:X O *D sky130_fd_sc_hd__or2_2
*CAP
1 *1187:B 6.88688e-05
2 *1124:A2 0
3 *1123:X 0.000198231
4 *141:12 6.88688e-05
5 *141:10 0.000198231
6 *1187:B *1187:A 0.000101444
7 *1187:B *142:10 4.96717e-05
8 *141:10 *1150:A2 0.000110922
9 *141:10 *326:10 0
10 *141:10 *369:44 0.000187129
11 *43:8 *141:10 0
*RES
1 *1123:X *141:10 41.6043 
2 *141:10 *141:12 15 
3 *141:12 *1124:A2 23 
4 *141:12 *1187:B 25.0921 
*END

*D_NET *142 0.00584396
*CONN
*I *1151:D1 I *D sky130_fd_sc_hd__o2111a_2
*I *1147:A I *D sky130_fd_sc_hd__and2_2
*I *1150:B1 I *D sky130_fd_sc_hd__o311a_2
*I *1364:A I *D sky130_fd_sc_hd__clkdlybuf4s25_1
*I *1124:X O *D sky130_fd_sc_hd__o21a_2
*CAP
1 *1151:D1 6.8769e-05
2 *1147:A 0.000456522
3 *1150:B1 9.53652e-06
4 *1364:A 0.000225999
5 *1124:X 0.000468877
6 *142:38 0.000959126
7 *142:16 0.000553519
8 *142:12 0.000751817
9 *142:10 0.000468877
10 *1147:A *154:10 2.93747e-05
11 *1147:A *243:71 0.000220454
12 *1150:B1 *1150:A2 3.91386e-05
13 *1151:D1 *243:71 7.03766e-05
14 *1364:A *1150:A2 1.76557e-05
15 *1364:A *370:26 2.93747e-05
16 *1364:A *370:60 4.34682e-05
17 *142:10 *1150:A2 8.72445e-05
18 *142:10 *1187:A 0.000174265
19 *142:10 *344:14 0
20 *142:10 *369:50 5.68423e-05
21 *142:16 *1150:A2 0.000293041
22 *142:16 *1150:C1 3.98818e-05
23 *142:38 *1100:B 5.3304e-05
24 *142:38 *1150:C1 4.76987e-05
25 *142:38 *307:27 4.21378e-05
26 *1148:B *142:38 0.000181125
27 *1150:A3 *1364:A 9.91895e-05
28 *1151:B1 *1147:A 2.11887e-05
29 *1151:B1 *1151:D1 3.96053e-05
30 *1187:B *142:10 4.96717e-05
31 *97:38 *1147:A 0.000189173
32 *133:77 *1147:A 5.67058e-05
*RES
1 *1124:X *142:10 45.975 
2 *142:10 *142:12 15 
3 *142:12 *142:16 5.40643 
4 *142:16 *1364:A 27.5986 
5 *142:16 *1150:B1 23.4971 
6 *142:12 *142:38 20.8621 
7 *142:38 *1147:A 48.1086 
8 *142:38 *1151:D1 39.9057 
*END

*D_NET *143 0.000347561
*CONN
*I *1126:B1 I *D sky130_fd_sc_hd__a31o_2
*I *1125:Y O *D sky130_fd_sc_hd__inv_2
*CAP
1 *1126:B1 0
2 *1125:Y 8.82653e-05
3 *143:8 8.82653e-05
4 *143:8 *146:10 3.50862e-06
5 *143:8 *264:39 0.000167522
*RES
1 *1125:Y *143:8 40.2579 
2 *143:8 *1126:B1 38 
*END

*D_NET *144 0.000479559
*CONN
*I *1127:B1 I *D sky130_fd_sc_hd__a21oi_2
*I *1126:X O *D sky130_fd_sc_hd__a31o_2
*CAP
1 *1127:B1 0.000105565
2 *1126:X 0.000105565
3 *1127:B1 *282:14 7.48516e-05
4 *1127:A1 *1127:B1 0.000102971
5 *30:10 *1127:B1 9.06073e-05
*RES
1 *1126:X *1127:B1 49.0036 
*END

*D_NET *145 0.00043221
*CONN
*I *1129:C I *D sky130_fd_sc_hd__and3_2
*I *1128:X O *D sky130_fd_sc_hd__or2_2
*CAP
1 *1129:C 0
2 *1128:X 0.000127643
3 *145:8 0.000127643
4 *145:8 *264:33 0.000114074
5 *145:8 *339:10 0
6 *1122:B *145:8 6.28488e-05
7 *124:28 *145:8 0
*RES
1 *1128:X *145:8 40.9621 
2 *145:8 *1129:C 38 
*END

*D_NET *146 0.000775276
*CONN
*I *1131:B I *D sky130_fd_sc_hd__nor2_2
*I *1130:Y O *D sky130_fd_sc_hd__o21ai_2
*CAP
1 *1131:B 0
2 *1130:Y 0.000279211
3 *146:10 0.000279211
4 *146:10 *264:39 0
5 *146:10 *341:8 0
6 *32:8 *146:10 0.000113244
7 *139:8 *146:10 0.000100101
8 *143:8 *146:10 3.50862e-06
*RES
1 *1130:Y *146:10 44.1729 
2 *146:10 *1131:B 38 
*END

*D_NET *147 0.00127886
*CONN
*I *1133:C I *D sky130_fd_sc_hd__and3b_2
*I *1132:X O *D sky130_fd_sc_hd__a21o_2
*CAP
1 *1133:C 0.000197069
2 *1132:X 0.000205434
3 *147:8 0.000402503
4 *147:8 *352:10 5.80963e-05
5 *1133:A_N *147:8 0.000415752
6 *137:26 *147:8 0
*RES
1 *1132:X *147:8 44.1314 
2 *147:8 *1133:C 40.5737 
*END

*D_NET *148 0.000717994
*CONN
*I *1135:B1 I *D sky130_fd_sc_hd__a21oi_2
*I *1134:Y O *D sky130_fd_sc_hd__o21ai_2
*CAP
1 *1135:B1 0
2 *1134:Y 0.000181608
3 *148:8 0.000181608
4 *148:8 *286:14 0.000354778
5 *148:8 *351:8 0
6 *35:8 *148:8 0
*RES
1 *1134:Y *148:8 42.7229 
2 *148:8 *1135:B1 38 
*END

*D_NET *149 0.000373674
*CONN
*I *1137:B I *D sky130_fd_sc_hd__nor2_2
*I *1136:Y O *D sky130_fd_sc_hd__o21ai_2
*CAP
1 *1137:B 0.000126669
2 *1136:Y 0.000126669
3 *1137:B *1136:B1 2.18506e-05
4 *137:10 *1137:B 9.84851e-05
*RES
1 *1136:Y *1137:B 48.5479 
*END

*D_NET *150 0.00101264
*CONN
*I *1139:C I *D sky130_fd_sc_hd__and3b_2
*I *1138:X O *D sky130_fd_sc_hd__a21o_2
*CAP
1 *1139:C 5.3658e-05
2 *1138:X 0.000310669
3 *150:10 0.000364327
4 *150:10 *1139:B 0
5 *150:10 *349:10 0.000111852
6 *150:10 *350:12 0
7 *36:10 *1139:C 2.45549e-06
8 *36:10 *150:10 0.000169674
*RES
1 *1138:X *150:10 44.4007 
2 *150:10 *1139:C 38.8596 
*END

*D_NET *151 0.000710536
*CONN
*I *1141:B1 I *D sky130_fd_sc_hd__a21oi_2
*I *1140:Y O *D sky130_fd_sc_hd__o21ai_2
*CAP
1 *1141:B1 0
2 *1140:Y 0.000176037
3 *151:8 0.000176037
4 *151:8 *264:126 8.51291e-05
5 *151:8 *275:23 0.00016242
6 *151:8 *348:47 0
7 *37:8 *151:8 0.000110913
*RES
1 *1140:Y *151:8 43.075 
2 *151:8 *1141:B1 38 
*END

*D_NET *152 0.00129657
*CONN
*I *1143:B I *D sky130_fd_sc_hd__nor2_2
*I *1142:Y O *D sky130_fd_sc_hd__o21ai_2
*CAP
1 *1143:B 2.75475e-05
2 *1142:Y 0.00044273
3 *152:10 0.000470278
4 *152:10 *1142:B1 6.07611e-06
5 *152:10 *242:106 0
6 *152:10 *304:10 0.000138727
7 *1142:A2 *152:10 5.50049e-05
8 *1143:A *1143:B 5.58003e-05
9 *38:8 *152:10 6.57673e-05
10 *123:8 *152:10 2.35118e-06
11 *133:10 *152:10 0
12 *134:8 *152:10 3.22879e-05
13 *134:12 *152:10 0
*RES
1 *1142:Y *152:10 46.8657 
2 *152:10 *1143:B 38.6214 
*END

*D_NET *153 0.000733866
*CONN
*I *1145:B I *D sky130_fd_sc_hd__nor2_2
*I *1144:Y O *D sky130_fd_sc_hd__nor2_2
*CAP
1 *1145:B 0
2 *1144:Y 0.000183148
3 *153:10 0.000183148
4 *153:10 *154:10 8.66057e-05
5 *153:10 *155:8 0
6 *153:10 *243:71 0.000199701
7 *153:10 *346:8 5.5792e-05
8 *132:10 *153:10 2.54714e-05
*RES
1 *1144:Y *153:10 42.64 
2 *153:10 *1145:B 38 
*END

*D_NET *154 0.000787445
*CONN
*I *1146:B2 I *D sky130_fd_sc_hd__a32o_2
*I *1145:Y O *D sky130_fd_sc_hd__nor2_2
*CAP
1 *1146:B2 3.93881e-05
2 *1145:Y 0.00023834
3 *154:10 0.000277728
4 *154:10 *155:8 0.000116009
5 *1147:A *154:10 2.93747e-05
6 *153:10 *154:10 8.66057e-05
*RES
1 *1145:Y *154:10 43.6964 
2 *154:10 *1146:B2 38.6214 
*END

*D_NET *155 0.000639957
*CONN
*I *1147:B I *D sky130_fd_sc_hd__and2_2
*I *1146:X O *D sky130_fd_sc_hd__a32o_2
*CAP
1 *1147:B 0
2 *1146:X 0.000219585
3 *155:8 0.000219585
4 *39:8 *155:8 8.47785e-05
5 *153:10 *155:8 0
6 *154:10 *155:8 0.000116009
*RES
1 *1146:X *155:8 43.4271 
2 *155:8 *1147:B 38 
*END

*D_NET *156 0.000397773
*CONN
*I *1149:B I *D sky130_fd_sc_hd__nor2_2
*I *1148:X O *D sky130_fd_sc_hd__and2_2
*CAP
1 *1149:B 0
2 *1148:X 0.00016207
3 *156:10 0.00016207
4 *156:10 *157:10 5.56306e-05
5 *156:10 *243:71 1.80023e-05
*RES
1 *1148:X *156:10 40.8793 
2 *156:10 *1149:B 38 
*END

*D_NET *157 0.00232525
*CONN
*I *1150:C1 I *D sky130_fd_sc_hd__o311a_2
*I *1149:Y O *D sky130_fd_sc_hd__nor2_2
*CAP
1 *1150:C1 0.000642811
2 *1149:Y 0.000134755
3 *157:10 0.000777566
4 *1150:C1 *1100:B 1.59094e-05
5 *1150:C1 *1113:B 2.02872e-05
6 *1150:C1 *1150:A2 0.000160514
7 *1150:C1 *307:27 4.34973e-05
8 *157:10 *243:71 0.000141879
9 *1148:B *1150:C1 1.03836e-05
10 *97:38 *1150:C1 0.000181131
11 *122:10 *1150:C1 5.3304e-05
12 *142:16 *1150:C1 3.98818e-05
13 *142:38 *1150:C1 4.76987e-05
14 *156:10 *157:10 5.56306e-05
*RES
1 *1149:Y *157:10 41.0036 
2 *157:10 *1150:C1 49.9521 
*END

*D_NET *158 0.0189636
*CONN
*I *1164:B I *D sky130_fd_sc_hd__or2_2
*I *1162:B I *D sky130_fd_sc_hd__or2_2
*I *1170:B I *D sky130_fd_sc_hd__or2_2
*I *1160:B I *D sky130_fd_sc_hd__or2_2
*I *1158:B I *D sky130_fd_sc_hd__or2_2
*I *1168:B I *D sky130_fd_sc_hd__or2_2
*I *1166:B I *D sky130_fd_sc_hd__or2_2
*I *1156:B I *D sky130_fd_sc_hd__or2_2
*I *1154:X O *D sky130_fd_sc_hd__and3_2
*CAP
1 *1164:B 0
2 *1162:B 0.000146246
3 *1170:B 2.34823e-05
4 *1160:B 0
5 *1158:B 2.34823e-05
6 *1168:B 0.000364215
7 *1166:B 0.000342149
8 *1156:B 0
9 *1154:X 0.000941037
10 *158:67 0.000894828
11 *158:63 0.00114503
12 *158:53 0.0019303
13 *158:43 0.00150795
14 *158:39 0.000740143
15 *158:31 0.000784918
16 *158:27 0.00116612
17 *158:16 0.00172137
18 *1162:B *159:91 0
19 *1162:B *163:10 1.32314e-05
20 *1162:B *254:25 0.000225275
21 *1162:B *359:14 5.33753e-05
22 *1166:B *1159:C1 0.000269151
23 *1166:B *1166:A 0.000135037
24 *1166:B *159:38 2.04774e-05
25 *1166:B *165:10 5.3304e-05
26 *1166:B *256:29 0.000127571
27 *1166:B *268:23 0.000435924
28 *1166:B *279:29 0.000385716
29 *1168:B *1168:A 0.00010018
30 *1168:B *1204:A1 7.55491e-05
31 *1168:B *159:38 1.94685e-05
32 *1168:B *172:27 6.4393e-05
33 *1168:B *247:33 0.000192012
34 *1168:B *256:29 9.29429e-05
35 *1168:B *362:10 0
36 *158:16 *1068:A 0.000137651
37 *158:16 *1156:A 3.53115e-05
38 *158:16 *1190:B 0.000141954
39 *158:16 *1190:C 9.93079e-05
40 *158:16 *1190:D 0.000497884
41 *158:16 *160:10 2.30292e-05
42 *158:27 *1156:A 5.67058e-05
43 *158:27 *1157:A2 0
44 *158:27 *1186:A 0
45 *158:27 *1393:A 9.70962e-05
46 *158:27 *1444:A 0.000116554
47 *158:27 *160:10 0
48 *158:27 *164:10 7.76364e-06
49 *158:27 *255:8 0
50 *158:27 *356:8 0.00014411
51 *158:27 *359:14 0
52 *158:31 *164:10 0.000151817
53 *158:31 *254:25 6.25829e-05
54 *158:31 *255:8 0
55 *158:31 *269:81 4.49946e-05
56 *158:31 *297:10 3.81391e-05
57 *158:31 *359:14 5.15908e-05
58 *158:31 *360:8 0.000140958
59 *158:39 *1299:D 0.000169963
60 *158:39 *247:79 5.50106e-05
61 *158:39 *254:14 0.000127359
62 *158:39 *291:20 4.6318e-06
63 *158:43 *1299:D 0.000183733
64 *158:43 *184:10 0.00017761
65 *158:43 *291:12 1.56665e-05
66 *158:53 *1160:A 5.3304e-05
67 *158:53 *167:18 0.000210225
68 *158:53 *247:19 0
69 *158:53 *247:64 0.000227208
70 *158:53 *287:23 0
71 *158:53 *290:10 6.69899e-05
72 *158:63 *1160:A 5.3304e-05
73 *158:63 *1194:A1 5.46706e-05
74 *158:63 *1194:B1_N 0
75 *158:63 *172:17 8.4047e-05
76 *158:63 *247:19 0
77 *158:63 *272:42 0.00037402
78 *158:63 *358:10 0.000374011
79 *158:67 *1159:B1 1.5769e-05
80 *158:67 *1159:C1 6.17437e-06
81 *158:67 *252:18 3.86227e-05
82 rx_data[4] *158:31 0
83 *1196:A1 *158:43 2.93845e-05
84 *1317:D *158:53 0.000140259
85 *1388:A *158:53 0.000126914
86 *1388:A *158:63 5.3304e-05
87 *44:10 *158:27 0.000261418
88 *60:8 *1168:B 9.88575e-05
89 *65:8 *158:53 9.48381e-06
90 *93:10 *158:16 5.3304e-05
91 *93:41 *158:16 5.60174e-05
*RES
1 *1154:X *158:16 41.4771 
2 *158:16 *1156:B 23 
3 *158:16 *158:27 34.0986 
4 *158:27 *158:31 8.86571 
5 *158:31 *158:39 35.2821 
6 *158:39 *158:43 21.815 
7 *158:43 *158:53 48.125 
8 *158:53 *158:63 47.1929 
9 *158:63 *158:67 17.5271 
10 *158:67 *1166:B 49.5793 
11 *158:67 *1168:B 46.7621 
12 *158:63 *1158:B 23.4971 
13 *158:53 *1160:B 23 
14 *158:43 *1170:B 23.4971 
15 *158:31 *1162:B 42.0807 
16 *158:27 *1164:B 38 
*END

*D_NET *159 0.0196746
*CONN
*I *1163:A2 I *D sky130_fd_sc_hd__o211a_2
*I *1165:A2 I *D sky130_fd_sc_hd__o211a_2
*I *1157:A2 I *D sky130_fd_sc_hd__o211a_2
*I *1171:A2 I *D sky130_fd_sc_hd__o211a_2
*I *1161:A2 I *D sky130_fd_sc_hd__o211a_2
*I *1169:A2 I *D sky130_fd_sc_hd__o211a_2
*I *1159:A2 I *D sky130_fd_sc_hd__o211a_2
*I *1167:A2 I *D sky130_fd_sc_hd__o211a_2
*I *1155:Y O *D sky130_fd_sc_hd__nand3_2
*CAP
1 *1163:A2 0.000105966
2 *1165:A2 8.00061e-05
3 *1157:A2 0.000319345
4 *1171:A2 2.53542e-05
5 *1161:A2 0
6 *1169:A2 0
7 *1159:A2 0
8 *1167:A2 0
9 *1155:Y 0.000815483
10 *159:91 0.000684952
11 *159:89 0.000959442
12 *159:76 0.00111439
13 *159:59 0.00114246
14 *159:48 0.000506171
15 *159:38 0.00138859
16 *159:27 0.000675486
17 *159:10 0.00055365
18 *159:6 0.000954763
19 *1157:A2 *160:10 4.6318e-06
20 *1157:A2 *359:14 0.000783738
21 *1163:A2 *291:20 8.24184e-05
22 *1165:A2 *1165:A1 4.00259e-06
23 *1165:A2 *1165:C1 4.00259e-06
24 *1165:A2 *269:66 2.64616e-05
25 *1171:A2 *1171:A1 2.44616e-06
26 *1171:A2 *1171:B1 1.14154e-05
27 *159:6 *1315:CLK 7.88828e-05
28 *159:6 *185:22 5.67058e-05
29 *159:6 *246:56 0.00016803
30 *159:6 *266:102 0.000222785
31 *159:6 *266:117 0.000255642
32 *159:10 *165:10 1.14452e-05
33 *159:10 *246:69 0
34 *159:10 *266:81 0
35 *159:10 *266:90 0
36 *159:10 *266:141 0
37 *159:10 *365:25 0.000277695
38 *159:27 *1159:C1 0.000165577
39 *159:27 *165:10 0.000425511
40 *159:27 *268:23 0.000278688
41 *159:27 *357:8 0.000135547
42 *159:27 *365:25 0.000913473
43 *159:38 *1159:C1 6.07611e-06
44 *159:38 *1204:A1 0.00015637
45 *159:38 *1204:A2 3.2457e-05
46 *159:38 *1205:A3 2.96369e-05
47 *159:38 *172:27 0.000138718
48 *159:38 *189:10 0
49 *159:38 *247:33 2.3529e-05
50 *159:38 *365:25 0.000181943
51 *159:48 *1204:B1_N 0.000228909
52 *159:48 *185:66 3.71228e-05
53 *159:48 *189:10 4.95081e-05
54 *159:48 *268:46 8.51329e-05
55 *159:48 *284:10 0
56 *159:48 *362:10 0.00010018
57 *159:59 *1194:B1_N 0.000379403
58 *159:59 *185:66 4.87474e-05
59 *159:59 *269:129 0.000382564
60 *159:76 *1171:B1 1.39317e-05
61 *159:76 *1194:B1_N 1.14452e-05
62 *159:76 *1446:A 0.000402806
63 *159:76 *256:29 0
64 *159:76 *269:144 0.00025668
65 *159:76 *289:10 0.000280437
66 *159:89 *1171:A1 2.99328e-05
67 *159:89 *1451:A 4.95081e-05
68 *159:89 *287:6 9.8971e-06
69 *159:89 *291:20 0.000174996
70 *159:91 *163:10 0
71 *159:91 *254:25 0
72 *159:91 *269:81 0
73 *159:91 *359:14 0.000396795
74 *1162:B *159:91 0
75 *1166:B *159:38 2.04774e-05
76 *1168:B *159:38 1.94685e-05
77 *1312:D *159:59 1.64354e-05
78 *1315:D *159:6 3.17634e-05
79 *1316:D *159:48 0.000228903
80 *8:8 *159:76 8.1796e-05
81 *11:8 *159:76 5.50106e-05
82 *13:8 *159:89 0.000708823
83 *47:8 *1157:A2 0.000141888
84 *47:8 *159:91 0.000629188
85 *48:8 *1157:A2 0.000159691
86 *51:6 *159:89 0.000839247
87 *119:50 *1157:A2 0
88 *158:27 *1157:A2 0
*RES
1 *1155:Y *159:6 35.0557 
2 *159:6 *159:10 18.6664 
3 *159:10 *1167:A2 38 
4 *159:10 *159:27 16.1157 
5 *159:27 *1159:A2 38 
6 *159:27 *159:38 21.4836 
7 *159:38 *159:48 41.4757 
8 *159:48 *1169:A2 23 
9 *159:38 *159:59 25.9371 
10 *159:59 *1161:A2 38 
11 *159:59 *159:76 29.7071 
12 *159:76 *1171:A2 23.8493 
13 *159:76 *159:89 32.545 
14 *159:89 *159:91 8.59643 
15 *159:91 *1157:A2 48.7093 
16 *159:91 *1165:A2 39.6157 
17 *159:89 *1163:A2 40.0714 
*END

*D_NET *160 0.00180525
*CONN
*I *1157:B1 I *D sky130_fd_sc_hd__o211a_2
*I *1156:X O *D sky130_fd_sc_hd__or2_2
*CAP
1 *1157:B1 1.80182e-05
2 *1156:X 0.000454849
3 *160:10 0.000472868
4 *1157:B1 *1157:A1 2.93845e-05
5 *1157:B1 *359:14 5.50106e-05
6 *160:10 *1157:A1 0.000253061
7 *160:10 *1157:C1 3.82852e-05
8 *160:10 *1186:A 7.03766e-05
9 *160:10 *1191:A1 0.000385735
10 *1157:A2 *160:10 4.6318e-06
11 *44:10 *160:10 0
12 *158:16 *160:10 2.30292e-05
13 *158:27 *160:10 0
*RES
1 *1156:X *160:10 49.6829 
2 *160:10 *1157:B1 38.6214 
*END

*D_NET *161 0.000365245
*CONN
*I *1159:B1 I *D sky130_fd_sc_hd__o211a_2
*I *1158:X O *D sky130_fd_sc_hd__or2_2
*CAP
1 *1159:B1 7.8864e-05
2 *1158:X 7.8864e-05
3 *1159:B1 *1159:C1 5.3304e-05
4 *1159:B1 *252:18 0.000138444
5 *158:67 *1159:B1 1.5769e-05
*RES
1 *1158:X *1159:B1 48.0714 
*END

*D_NET *162 0.000490881
*CONN
*I *1161:B1 I *D sky130_fd_sc_hd__o211a_2
*I *1160:X O *D sky130_fd_sc_hd__or2_2
*CAP
1 *1161:B1 0.000222856
2 *1160:X 0.000222856
3 *1161:B1 *1161:A1 1.28818e-05
4 *1388:A *1161:B1 3.22879e-05
*RES
1 *1160:X *1161:B1 49.5007 
*END

*D_NET *163 0.000545295
*CONN
*I *1163:B1 I *D sky130_fd_sc_hd__o211a_2
*I *1162:X O *D sky130_fd_sc_hd__or2_2
*CAP
1 *1163:B1 0
2 *1162:X 0.00022346
3 *163:10 0.00022346
4 *163:10 *269:81 8.51432e-05
5 *1162:B *163:10 1.32314e-05
6 *159:91 *163:10 0
*RES
1 *1162:X *163:10 41.8321 
2 *163:10 *1163:B1 38 
*END

*D_NET *164 0.00146803
*CONN
*I *1165:B1 I *D sky130_fd_sc_hd__o211a_2
*I *1164:X O *D sky130_fd_sc_hd__or2_2
*CAP
1 *1165:B1 0
2 *1164:X 0.000352803
3 *164:10 0.000352803
4 *164:10 *359:14 0.000461888
5 *164:10 *360:8 0.000140958
6 *158:27 *164:10 7.76364e-06
7 *158:31 *164:10 0.000151817
*RES
1 *1164:X *164:10 47.6114 
2 *164:10 *1165:B1 38 
*END

*D_NET *165 0.001414
*CONN
*I *1167:B1 I *D sky130_fd_sc_hd__o211a_2
*I *1166:X O *D sky130_fd_sc_hd__or2_2
*CAP
1 *1167:B1 0
2 *1166:X 0.000316562
3 *165:10 0.000316562
4 *165:10 *1166:A 4.34876e-05
5 *165:10 *1167:C1 8.51225e-05
6 *165:10 *268:23 0.000162006
7 *1166:B *165:10 5.3304e-05
8 *159:10 *165:10 1.14452e-05
9 *159:27 *165:10 0.000425511
*RES
1 *1166:X *165:10 46.3064 
2 *165:10 *1167:B1 38 
*END

*D_NET *166 0.0010882
*CONN
*I *1169:B1 I *D sky130_fd_sc_hd__o211a_2
*I *1168:X O *D sky130_fd_sc_hd__or2_2
*CAP
1 *1169:B1 0
2 *1168:X 0.000420938
3 *166:8 0.000420938
4 *166:8 *1169:A1 0.000171063
5 *166:8 *268:50 2.02517e-05
6 *166:8 *284:10 5.50049e-05
*RES
1 *1168:X *166:8 30.7886 
2 *166:8 *1169:B1 23 
*END

*D_NET *167 0.00156397
*CONN
*I *1171:B1 I *D sky130_fd_sc_hd__o211a_2
*I *1170:X O *D sky130_fd_sc_hd__or2_2
*CAP
1 *1171:B1 6.90025e-05
2 *1170:X 0.000491766
3 *167:18 0.000560768
4 *1171:B1 *1171:A1 2.86899e-05
5 *1171:B1 *269:144 2.02517e-05
6 *167:18 *287:23 9.84177e-05
7 *167:18 *363:10 5.70419e-05
8 *1171:A2 *1171:B1 1.14154e-05
9 *1317:D *167:18 2.45549e-06
10 *158:53 *167:18 0.000210225
11 *159:76 *1171:B1 1.39317e-05
*RES
1 *1170:X *167:18 48.6886 
2 *167:18 *1171:B1 39.4707 
*END

*D_NET *168 0.000892296
*CONN
*I *1175:B1 I *D sky130_fd_sc_hd__a21o_2
*I *1174:Y O *D sky130_fd_sc_hd__a21oi_2
*CAP
1 *1175:B1 5.90711e-05
2 *1174:Y 0.000149182
3 *168:10 0.000208253
4 *1175:B1 *1184:A2 4.17736e-05
5 *1175:B1 *169:14 5.50106e-05
6 *1175:B1 *239:153 4.34803e-05
7 *168:10 *169:10 0
8 *168:10 *170:8 2.35119e-05
9 *168:10 *170:12 6.22866e-05
10 *168:10 *239:122 7.13307e-05
11 *168:10 *271:19 9.84794e-05
12 *127:23 *168:10 5.67058e-05
13 *127:35 *168:10 2.32101e-05
*RES
1 *1174:Y *168:10 42.06 
2 *168:10 *1175:B1 39.595 
*END

*D_NET *169 0.00653656
*CONN
*I *1184:A2 I *D sky130_fd_sc_hd__a22o_2
*I *1182:A2 I *D sky130_fd_sc_hd__a22o_2
*I *1177:B I *D sky130_fd_sc_hd__or2_2
*I *1175:X O *D sky130_fd_sc_hd__a21o_2
*CAP
1 *1184:A2 0.000943708
2 *1182:A2 0.000253187
3 *1177:B 0
4 *1175:X 0.000209763
5 *169:18 0.000578634
6 *169:14 0.00145416
7 *169:10 0.000394771
8 *1182:A2 *1182:B1 0.000185095
9 *1182:A2 *170:12 0.000194318
10 *1182:A2 *171:10 0.000169674
11 *1182:A2 *179:39 1.53833e-05
12 *1182:A2 *271:76 2.09183e-05
13 *1182:A2 *271:86 0
14 *1182:A2 *353:56 2.24973e-05
15 *1182:A2 *354:20 3.04324e-05
16 *1182:A2 *354:28 4.96264e-05
17 *1184:A2 *1175:A1 0.000311529
18 *1184:A2 *170:46 9.32275e-05
19 *1184:A2 *239:153 1.89178e-05
20 *1184:A2 *355:16 3.7405e-05
21 *1184:A2 *355:31 0.000220264
22 *169:10 *170:12 0
23 *169:10 *239:110 5.12254e-05
24 *169:10 *239:122 3.0647e-05
25 *169:10 *239:153 4.5051e-05
26 *169:14 *239:110 3.3577e-05
27 *169:14 *239:153 2.98648e-05
28 *169:18 *170:12 0.000548702
29 *169:18 *271:59 0.000185755
30 *169:18 *271:76 4.23714e-05
31 *169:18 *272:27 0
32 *169:18 *370:91 6.67868e-05
33 *1175:B1 *1184:A2 4.17736e-05
34 *1175:B1 *169:14 5.50106e-05
35 *116:80 *1184:A2 5.50049e-05
36 *117:20 *169:10 0.000147271
37 *117:20 *169:18 0
38 *168:10 *169:10 0
*RES
1 *1175:X *169:10 41.9564 
2 *169:10 *169:14 17.5271 
3 *169:14 *169:18 22.54 
4 *169:18 *1177:B 38 
5 *169:18 *1182:A2 44.1314 
6 *169:14 *1184:A2 37.5052 
*END

*D_NET *170 0.00620443
*CONN
*I *1184:B1 I *D sky130_fd_sc_hd__a22o_2
*I *1182:B1 I *D sky130_fd_sc_hd__a22o_2
*I *1178:A2 I *D sky130_fd_sc_hd__o211a_2
*I *1176:X O *D sky130_fd_sc_hd__o211a_2
*CAP
1 *1184:B1 0
2 *1182:B1 0.000304008
3 *1178:A2 8.86314e-05
4 *1176:X 0.000198894
5 *170:46 0.000596699
6 *170:12 0.000948879
7 *170:8 0.00135183
8 *1178:A2 *353:56 2.20408e-05
9 *1182:B1 *179:39 1.14762e-05
10 *1182:B1 *239:153 3.0647e-05
11 *1182:B1 *246:46 0
12 *1182:B1 *353:56 8.4047e-05
13 *1182:B1 *354:20 0.000137651
14 *170:8 *1420:A 8.02348e-05
15 *170:8 *239:122 0
16 *170:8 *271:25 0
17 *170:8 *368:65 4.96264e-05
18 *170:8 *370:18 0.000110913
19 *170:12 *239:153 0.000406763
20 *170:46 *1175:A1 0.000528927
21 *170:46 *239:153 1.83667e-05
22 *170:46 *271:45 0
23 *170:46 *355:16 3.91386e-05
24 *170:46 *355:31 8.1796e-05
25 *1182:A2 *1182:B1 0.000185095
26 *1182:A2 *170:12 0.000194318
27 *1184:A2 *170:46 9.32275e-05
28 *101:25 *170:8 6.7177e-06
29 *168:10 *170:8 2.35119e-05
30 *168:10 *170:12 6.22866e-05
31 *169:10 *170:12 0
32 *169:18 *170:12 0.000548702
*RES
1 *1176:X *170:8 42.1946 
2 *170:8 *170:12 12.5632 
3 *170:12 *1178:A2 39.4707 
4 *170:12 *1182:B1 43.1579 
5 *170:8 *170:46 28.2468 
6 *170:46 *1184:B1 23 
*END

*D_NET *171 0.000586606
*CONN
*I *1178:B1 I *D sky130_fd_sc_hd__o211a_2
*I *1177:X O *D sky130_fd_sc_hd__or2_2
*CAP
1 *1178:B1 0
2 *1177:X 0.000140068
3 *171:10 0.000140068
4 *171:10 *246:50 5.41385e-05
5 *171:10 *271:76 8.26569e-05
6 *1182:A2 *171:10 0.000169674
*RES
1 *1177:X *171:10 41.3557 
2 *171:10 *1178:B1 38 
*END

*D_NET *172 0.00578523
*CONN
*I *1194:A1 I *D sky130_fd_sc_hd__o21bai_2
*I *1195:A2 I *D sky130_fd_sc_hd__o311a_2
*I *1204:A1 I *D sky130_fd_sc_hd__o21bai_2
*I *1205:A2 I *D sky130_fd_sc_hd__o311a_2
*I *1181:A I *D sky130_fd_sc_hd__nand2_2
*I *1179:Y O *D sky130_fd_sc_hd__nand2_2
*CAP
1 *1194:A1 2.73674e-05
2 *1195:A2 2.30602e-05
3 *1204:A1 6.65949e-05
4 *1205:A2 0.000371287
5 *1181:A 5.32145e-05
6 *1179:Y 0
7 *172:27 0.000733442
8 *172:21 0.000745418
9 *172:17 0.000753033
10 *172:6 0.000352082
11 *1181:A *272:42 0.000168754
12 *1194:A1 *247:10 0
13 *1195:A2 *1194:A2 3.91386e-05
14 *1195:A2 *267:17 3.91386e-05
15 *1204:A1 *247:33 1.14452e-05
16 *1205:A2 *1205:A1 1.32939e-05
17 *1205:A2 *1205:A3 0.000269775
18 *1205:A2 *1205:C1 0.000151628
19 *172:17 *247:10 0
20 *172:17 *271:86 8.67875e-05
21 *172:17 *272:42 0.000353536
22 *172:21 *1194:A2 0.000355817
23 *172:21 *267:25 5.26097e-05
24 *172:27 *267:17 0.000267178
25 *172:27 *267:25 1.32939e-05
26 *1168:B *1204:A1 7.55491e-05
27 *1168:B *172:27 6.4393e-05
28 *1179:B *172:17 8.33866e-05
29 *94:10 *1181:A 0.000168754
30 *94:10 *172:17 1.14452e-05
31 *158:63 *1194:A1 5.46706e-05
32 *158:63 *172:17 8.4047e-05
33 *159:38 *1204:A1 0.00015637
34 *159:38 *172:27 0.000138718
*RES
1 *1179:Y *172:6 38 
2 *172:6 *1181:A 40.2579 
3 *172:6 *172:17 8.59643 
4 *172:17 *172:21 21.3386 
5 *172:21 *172:27 20.3857 
6 *172:27 *1205:A2 43.8829 
7 *172:27 *1204:A1 40.2579 
8 *172:21 *1195:A2 23.8493 
9 *172:17 *1194:A1 38.8493 
*END

*D_NET *173 0.00410853
*CONN
*I *1181:B I *D sky130_fd_sc_hd__nand2_2
*I *1192:A1 I *D sky130_fd_sc_hd__o21bai_2
*I *1193:A2 I *D sky130_fd_sc_hd__o311a_2
*I *1202:A1 I *D sky130_fd_sc_hd__o21bai_2
*I *1203:A2 I *D sky130_fd_sc_hd__o311a_2
*I *1180:X O *D sky130_fd_sc_hd__or2_2
*CAP
1 *1181:B 3.63092e-05
2 *1192:A1 0
3 *1193:A2 0
4 *1202:A1 0
5 *1203:A2 0
6 *1180:X 0
7 *173:48 0.000412072
8 *173:38 0.000482086
9 *173:36 0.000169613
10 *173:22 0.000239381
11 *173:12 0.00044709
12 *173:6 0.000270999
13 *1181:B *179:39 2.64616e-05
14 *173:12 *185:12 0.000123944
15 *173:12 *246:50 0.000140259
16 *173:12 *246:56 9.48381e-06
17 *173:12 *246:76 8.33469e-05
18 *173:12 *272:27 0.000123428
19 *173:12 *272:42 1.37349e-05
20 *173:22 *1203:B1 5.3304e-05
21 *173:22 *188:8 0
22 *173:22 *246:56 0.00017753
23 *173:22 *266:98 0.000301945
24 *173:22 *266:141 0
25 *173:36 *246:76 5.19151e-05
26 *173:36 *272:42 1.47563e-05
27 *173:36 *354:36 0.000141879
28 *173:38 *179:39 8.22426e-05
29 *173:48 *1193:C1 2.93747e-05
30 *173:48 *1308:CLK 0.000182854
31 *173:48 *179:39 5.3304e-05
32 *173:48 *179:45 0
33 *173:48 *179:60 0
34 *173:48 *182:8 0.000140223
35 *173:48 *246:76 0.000222113
36 *173:48 *269:97 7.88828e-05
37 *173:48 *272:42 0
*RES
1 *1180:X *173:6 38 
2 *173:6 *173:12 21.1936 
3 *173:12 *173:22 35.7586 
4 *173:22 *1203:A2 23 
5 *173:12 *1202:A1 23 
6 *173:6 *173:36 17.2579 
7 *173:36 *173:38 1.57429 
8 *173:38 *173:48 39.28 
9 *173:48 *1193:A2 23 
10 *173:38 *1192:A1 23 
11 *173:36 *1181:B 23.6214 
*END

*D_NET *174 9.44624e-05
*CONN
*I *1182:B2 I *D sky130_fd_sc_hd__a22o_2
*I *1181:Y O *D sky130_fd_sc_hd__nand2_2
*CAP
1 *1182:B2 3.2539e-05
2 *1181:Y 3.2539e-05
3 *1182:B2 *179:39 2.93845e-05
*RES
1 *1181:Y *1182:B2 46.6214 
*END

*D_NET *175 0.000502855
*CONN
*I *1183:B I *D sky130_fd_sc_hd__and2_2
*I *1182:X O *D sky130_fd_sc_hd__a22o_2
*CAP
1 *1183:B 0
2 *1182:X 0.000175032
3 *175:10 0.000175032
4 *175:10 *179:39 0.00010018
5 *175:10 *271:86 0
6 *175:10 *353:56 5.26101e-05
*RES
1 *1182:X *175:10 41.3557 
2 *175:10 *1183:B 38 
*END

*D_NET *176 0.000554709
*CONN
*I *1186:B I *D sky130_fd_sc_hd__and3_2
*I *1184:X O *D sky130_fd_sc_hd__a22o_2
*CAP
1 *1186:B 0.000227787
2 *1184:X 0.000227787
3 *1186:B *1186:A 1.73399e-05
4 *1186:B *355:16 8.1796e-05
*RES
1 *1184:X *1186:B 49.48 
*END

*D_NET *177 0.000453294
*CONN
*I *1186:C I *D sky130_fd_sc_hd__and3_2
*I *1185:Y O *D sky130_fd_sc_hd__nand2_2
*CAP
1 *1186:C 0
2 *1185:Y 0.000123074
3 *177:10 0.000123074
4 *177:10 *1186:A 0.000114083
5 *177:10 *246:20 2.93747e-05
6 *177:10 *355:8 8.06804e-06
7 *57:8 *177:10 5.56203e-05
*RES
1 *1185:Y *177:10 40.6514 
2 *177:10 *1186:C 38 
*END

*D_NET *178 0.00153462
*CONN
*I *1188:B1 I *D sky130_fd_sc_hd__a211o_2
*I *1198:B1 I *D sky130_fd_sc_hd__a211o_2
*I *1187:X O *D sky130_fd_sc_hd__or2_2
*CAP
1 *1188:B1 5.62736e-05
2 *1198:B1 3.81063e-05
3 *1187:X 0.000412697
4 *178:10 9.43799e-05
5 *178:8 0.000412697
6 *1198:B1 *1188:A1 1.32939e-05
7 *1198:B1 *1198:A1 5.12055e-06
8 *178:8 *344:14 6.07611e-06
9 *178:8 *355:31 0.000134077
10 *178:8 *368:93 0
11 *178:8 *368:108 0
12 *1098:B *1188:B1 8.17328e-05
13 *1098:B *1198:B1 0.00010947
14 *1184:B2 *178:8 1.47563e-05
15 *1198:C1 *1188:B1 9.58136e-05
16 *1198:C1 *1198:B1 6.01255e-05
17 *116:29 *178:8 0
*RES
1 *1187:X *178:8 45.54 
2 *178:8 *178:10 15 
3 *178:10 *1198:B1 24.595 
4 *178:10 *1188:B1 24.595 
*END

*D_NET *179 0.0122764
*CONN
*I *1189:C I *D sky130_fd_sc_hd__nor3_2
*I *1196:A2 I *D sky130_fd_sc_hd__o21bai_2
*I *1197:A3 I *D sky130_fd_sc_hd__o311a_2
*I *1192:A2 I *D sky130_fd_sc_hd__o21bai_2
*I *1195:A3 I *D sky130_fd_sc_hd__o311a_2
*I *1194:A2 I *D sky130_fd_sc_hd__o21bai_2
*I *1193:A3 I *D sky130_fd_sc_hd__o311a_2
*I *1190:D I *D sky130_fd_sc_hd__or4_2
*I *1188:X O *D sky130_fd_sc_hd__a211o_2
*CAP
1 *1189:C 0
2 *1196:A2 0.000170496
3 *1197:A3 7.03398e-05
4 *1192:A2 0
5 *1195:A3 0
6 *1194:A2 0.000123397
7 *1193:A3 0
8 *1190:D 0.000163362
9 *1188:X 0.000102487
10 *179:89 0.000808402
11 *179:60 0.000443667
12 *179:45 0.000550052
13 *179:39 0.00134874
14 *179:27 0.00172309
15 *179:25 0.000417722
16 *179:8 0.000647001
17 *1190:D *1190:A 0.000184527
18 *1190:D *1190:C 4.30437e-05
19 *1190:D *181:10 6.52495e-05
20 *1194:A2 *1195:B1 0.000105965
21 *1194:A2 *1195:C1 5.50106e-05
22 *1194:A2 *267:25 5.10686e-05
23 *1196:A2 *184:10 2.84809e-05
24 *1196:A2 *291:12 0.000240435
25 *1197:A3 *269:57 0.000141954
26 *179:25 *1190:A 0
27 *179:25 *180:10 0.000189173
28 *179:25 *181:10 3.81658e-05
29 *179:39 *1189:A 5.50106e-05
30 *179:39 *1189:B 9.45494e-05
31 *179:39 *180:10 1.40958e-05
32 *179:39 *246:38 0.00024017
33 *179:39 *354:20 0.000298943
34 *179:45 *182:8 0.000412601
35 *179:45 *266:141 0.000222204
36 *179:60 *182:8 1.14452e-05
37 *179:60 *256:29 4.40479e-06
38 *179:60 *267:25 6.07611e-06
39 *179:60 *269:97 0.000344159
40 *179:60 *272:42 0
41 *179:89 *186:10 0.000285412
42 *179:89 *247:108 0.000171906
43 *179:89 *291:12 0.000471549
44 *179:89 *354:75 0
45 *1181:B *179:39 2.64616e-05
46 *1182:A2 *179:39 1.53833e-05
47 *1182:B1 *179:39 1.14762e-05
48 *1182:B2 *179:39 2.93845e-05
49 *1185:B *179:8 6.6869e-05
50 *1185:B *179:25 2.71291e-05
51 *1195:A2 *1194:A2 3.91386e-05
52 *1196:A1 *1196:A2 0
53 *61:10 *1196:A2 0.000135557
54 *93:41 *1190:D 0.000141954
55 *119:10 *179:89 4.84148e-05
56 *119:50 *179:25 0.000300872
57 *119:50 *179:89 0
58 *120:8 *179:8 0
59 *158:16 *1190:D 0.000497884
60 *172:21 *1194:A2 0.000355817
61 *173:38 *179:39 8.22426e-05
62 *173:48 *179:39 5.3304e-05
63 *173:48 *179:45 0
64 *173:48 *179:60 0
65 *175:10 *179:39 0.00010018
*RES
1 *1188:X *179:8 39.9057 
2 *179:8 *1190:D 45.3121 
3 *179:8 *179:25 24.57 
4 *179:25 *179:27 0.621429 
5 *179:27 *179:39 22.4129 
6 *179:39 *179:45 22.3536 
7 *179:45 *1193:A3 38 
8 *179:45 *179:60 21.5457 
9 *179:60 *1194:A2 27.9507 
10 *179:60 *1195:A3 23 
11 *179:39 *1192:A2 23 
12 *179:27 *179:89 29.2929 
13 *179:89 *1197:A3 39.5743 
14 *179:89 *1196:A2 41.3143 
15 *179:25 *1189:C 23 
*END

*D_NET *180 0.000747904
*CONN
*I *1191:A2 I *D sky130_fd_sc_hd__o211a_2
*I *1189:Y O *D sky130_fd_sc_hd__nor3_2
*CAP
1 *1191:A2 0
2 *1189:Y 0.000259979
3 *180:10 0.000259979
4 *180:10 *1189:B 1.32314e-05
5 *180:10 *1190:A 0
6 *180:10 *181:10 1.14452e-05
7 *179:25 *180:10 0.000189173
8 *179:39 *180:10 1.40958e-05
*RES
1 *1189:Y *180:10 43.6964 
2 *180:10 *1191:A2 38 
*END

*D_NET *181 0.000791852
*CONN
*I *1191:B1 I *D sky130_fd_sc_hd__o211a_2
*I *1190:X O *D sky130_fd_sc_hd__or4_2
*CAP
1 *1191:B1 0
2 *1190:X 0.000309898
3 *181:10 0.000309898
4 *181:10 *1190:A 4.9662e-05
5 *1190:D *181:10 6.52495e-05
6 *93:41 *181:10 7.53384e-06
7 *179:25 *181:10 3.81658e-05
8 *180:10 *181:10 1.14452e-05
*RES
1 *1190:X *181:10 42.9093 
2 *181:10 *1191:B1 38 
*END

*D_NET *182 0.000838738
*CONN
*I *1193:B1 I *D sky130_fd_sc_hd__o311a_2
*I *1192:Y O *D sky130_fd_sc_hd__o21bai_2
*CAP
1 *1193:B1 0
2 *1192:Y 0.000137235
3 *182:8 0.000137235
4 *173:48 *182:8 0.000140223
5 *179:45 *182:8 0.000412601
6 *179:60 *182:8 1.14452e-05
*RES
1 *1192:Y *182:8 43.4271 
2 *182:8 *1193:B1 38 
*END

*D_NET *183 0.000543755
*CONN
*I *1195:B1 I *D sky130_fd_sc_hd__o311a_2
*I *1194:Y O *D sky130_fd_sc_hd__o21bai_2
*CAP
1 *1195:B1 7.86902e-05
2 *1194:Y 7.86902e-05
3 *1195:B1 *1195:C1 5.50106e-05
4 *1195:B1 *267:25 0.000225399
5 *1194:A2 *1195:B1 0.000105965
*RES
1 *1194:Y *1195:B1 49.0243 
*END

*D_NET *184 0.000825158
*CONN
*I *1197:B1 I *D sky130_fd_sc_hd__o311a_2
*I *1196:Y O *D sky130_fd_sc_hd__o21bai_2
*CAP
1 *1197:B1 0
2 *1196:Y 0.00015696
3 *184:10 0.00015696
4 *184:10 *247:79 6.08617e-05
5 *184:10 *291:12 5.50106e-05
6 *1196:A1 *184:10 8.05936e-05
7 *1196:A2 *184:10 2.84809e-05
8 *61:10 *184:10 0.000108681
9 *158:43 *184:10 0.00017761
*RES
1 *1196:Y *184:10 42.3086 
2 *184:10 *1197:B1 38 
*END

*D_NET *185 0.0122335
*CONN
*I *1206:A2 I *D sky130_fd_sc_hd__o21bai_2
*I *1207:A3 I *D sky130_fd_sc_hd__o311a_2
*I *1204:A2 I *D sky130_fd_sc_hd__o21bai_2
*I *1205:A3 I *D sky130_fd_sc_hd__o311a_2
*I *1199:C I *D sky130_fd_sc_hd__nor3_2
*I *1200:D I *D sky130_fd_sc_hd__or4_2
*I *1202:A2 I *D sky130_fd_sc_hd__o21bai_2
*I *1203:A3 I *D sky130_fd_sc_hd__o311a_2
*I *1198:X O *D sky130_fd_sc_hd__a211o_2
*CAP
1 *1206:A2 5.42125e-05
2 *1207:A3 2.34823e-05
3 *1204:A2 4.60504e-05
4 *1205:A3 0.000152819
5 *1199:C 0.000132377
6 *1200:D 0
7 *1202:A2 5.5894e-05
8 *1203:A3 0
9 *1198:X 0.000217795
10 *185:66 0.00147172
11 *185:62 0.00164003
12 *185:58 0.000646598
13 *185:47 0.00051232
14 *185:38 0.000814277
15 *185:22 0.00025778
16 *185:12 0.00139493
17 *185:8 0.00198207
18 *1199:C *247:98 7.88926e-05
19 *1202:A2 *1202:B1_N 0
20 *1204:A2 *189:10 0
21 *1205:A3 *1205:A1 5.10686e-05
22 *1205:A3 *1205:C1 8.1796e-05
23 *1205:A3 *189:10 0
24 *1206:A2 *267:31 0
25 *1206:A2 *267:48 4.43717e-05
26 *1206:A2 *287:23 0
27 *185:8 *1190:B 0
28 *185:8 *271:45 1.01436e-05
29 *185:8 *271:107 0.000293785
30 *185:12 *246:50 0.000167041
31 *185:12 *271:107 5.3304e-05
32 *185:22 *188:8 0.000135557
33 *185:22 *246:56 5.50049e-05
34 *185:22 *266:81 1.69668e-05
35 *185:22 *271:12 2.71291e-05
36 *185:38 *1190:B 0
37 *185:38 *239:179 0
38 *185:38 *246:12 0
39 *185:38 *246:38 0
40 *185:38 *246:46 0
41 *185:38 *271:107 2.46345e-05
42 *185:38 *353:34 0
43 *185:38 *353:73 0
44 *185:38 *354:10 0
45 *185:38 *354:20 0
46 *185:47 *239:179 0
47 *185:47 *267:48 9.98891e-05
48 *185:47 *353:73 0
49 *185:58 *239:179 0
50 *185:58 *267:31 0
51 *185:58 *267:48 0.000190205
52 *185:62 *190:8 2.4754e-05
53 *185:66 *190:8 3.22879e-05
54 *185:66 *272:42 0.000167478
55 *185:66 *358:10 9.52332e-06
56 *1177:A *185:12 0.000126847
57 *1205:A2 *1205:A3 0.000269775
58 *1207:A2 *185:62 0.000487147
59 *1307:D *185:12 5.16606e-05
60 *1312:D *185:66 3.24476e-06
61 *55:10 *185:38 0
62 *64:8 *1204:A2 0
63 *120:8 *185:8 0
64 *159:6 *185:22 5.67058e-05
65 *159:38 *1204:A2 3.2457e-05
66 *159:38 *1205:A3 2.96369e-05
67 *159:48 *185:66 3.71228e-05
68 *159:59 *185:66 4.87474e-05
69 *173:12 *185:12 0.000123944
*RES
1 *1198:X *185:8 42.0186 
2 *185:8 *185:12 30.3907 
3 *185:12 *185:22 34.8057 
4 *185:22 *1203:A3 23 
5 *185:12 *1202:A2 24.4707 
6 *185:8 *185:38 11.7657 
7 *185:38 *1200:D 38 
8 *185:38 *185:47 3.31429 
9 *185:47 *1199:C 40.5271 
10 *185:47 *185:58 5.075 
11 *185:58 *185:62 20.8621 
12 *185:62 *185:66 31.82 
13 *185:66 *1205:A3 42.5571 
14 *185:66 *1204:A2 39.2014 
15 *185:62 *1207:A3 23.4971 
16 *185:58 *1206:A2 39.2014 
*END

*D_NET *186 0.000896534
*CONN
*I *1201:A2 I *D sky130_fd_sc_hd__o211a_2
*I *1199:Y O *D sky130_fd_sc_hd__nor3_2
*CAP
1 *1201:A2 0
2 *1199:Y 0.00018122
3 *186:10 0.00018122
4 *186:10 *247:98 9.67842e-05
5 *119:10 *186:10 0.000151899
6 *179:89 *186:10 0.000285412
*RES
1 *1199:Y *186:10 43.1164 
2 *186:10 *1201:A2 38 
*END

*D_NET *187 0.000547472
*CONN
*I *1201:B1 I *D sky130_fd_sc_hd__o211a_2
*I *1200:X O *D sky130_fd_sc_hd__or4_2
*CAP
1 *1201:B1 0.000215674
2 *1200:X 0.000215674
3 *1201:B1 *354:64 2.02517e-05
4 *1201:B1 *354:73 9.58714e-05
*RES
1 *1200:X *1201:B1 49.5214 
*END

*D_NET *188 0.000574342
*CONN
*I *1203:B1 I *D sky130_fd_sc_hd__o311a_2
*I *1202:Y O *D sky130_fd_sc_hd__o21bai_2
*CAP
1 *1203:B1 1.9139e-05
2 *1202:Y 9.86946e-05
3 *188:8 0.000117834
4 *1203:B1 *246:56 5.50049e-05
5 *188:8 *266:81 6.07611e-06
6 *188:8 *266:90 3.31127e-05
7 *188:8 *266:141 5.56203e-05
8 *173:22 *1203:B1 5.3304e-05
9 *173:22 *188:8 0
10 *185:22 *188:8 0.000135557
*RES
1 *1202:Y *188:8 40.2579 
2 *188:8 *1203:B1 38.6214 
*END

*D_NET *189 0.000581384
*CONN
*I *1205:B1 I *D sky130_fd_sc_hd__o311a_2
*I *1204:Y O *D sky130_fd_sc_hd__o21bai_2
*CAP
1 *1205:B1 0
2 *1204:Y 0.000238432
3 *189:10 0.000238432
4 *189:10 *1204:B1_N 5.50106e-05
5 *1204:A2 *189:10 0
6 *1205:A3 *189:10 0
7 *64:8 *189:10 0
8 *159:38 *189:10 0
9 *159:48 *189:10 4.95081e-05
*RES
1 *1204:Y *189:10 42.5364 
2 *189:10 *1205:B1 38 
*END

*D_NET *190 0.000777684
*CONN
*I *1207:B1 I *D sky130_fd_sc_hd__o311a_2
*I *1206:Y O *D sky130_fd_sc_hd__o21bai_2
*CAP
1 *1207:B1 0
2 *1206:Y 0.000124267
3 *190:8 0.000124267
4 *190:8 *267:42 0.000157157
5 *1207:A2 *190:8 0.00031495
6 *185:62 *190:8 2.4754e-05
7 *185:66 *190:8 3.22879e-05
*RES
1 *1206:Y *190:8 27.93 
2 *190:8 *1207:B1 23 
*END

*D_NET *191 0.00116998
*CONN
*I *1217:A1 I *D sky130_fd_sc_hd__a21boi_2
*I *1212:A I *D sky130_fd_sc_hd__or4_2
*I *1208:Y O *D sky130_fd_sc_hd__nand2b_2
*CAP
1 *1217:A1 0
2 *1212:A 0.000120097
3 *1208:Y 0.000291848
4 *191:22 0.000171751
5 *1212:A *1212:C 0.000237969
6 *1212:A *195:14 3.31122e-05
7 *191:22 *371:67 0.000164618
8 *191:22 *375:71 1.61901e-05
9 *67:10 *191:22 0.000134397
*RES
1 *1208:Y *1212:A 49.0243 
2 *1208:Y *191:22 42.7229 
3 *191:22 *1217:A1 38 
*END

*D_NET *192 0.00133422
*CONN
*I *1212:B I *D sky130_fd_sc_hd__or4_2
*I *1209:X O *D sky130_fd_sc_hd__or4b_2
*CAP
1 *1212:B 0
2 *1209:X 0.000594599
3 *192:14 0.000594599
4 *192:14 *1209:A 3.22467e-05
5 *192:14 *1231:A 0
6 *192:14 *194:10 3.76854e-05
7 *192:14 *239:35 7.50918e-05
8 *192:14 *371:67 0
*RES
1 *1209:X *192:14 49.0407 
2 *192:14 *1212:B 38 
*END

*D_NET *193 0.00195863
*CONN
*I *1212:C I *D sky130_fd_sc_hd__or4_2
*I *1210:X O *D sky130_fd_sc_hd__or3_2
*CAP
1 *1212:C 0.000694318
2 *1210:X 8.26603e-05
3 *193:8 0.000776978
4 *1212:C *195:14 1.08287e-05
5 *1212:C *343:6 1.24298e-05
6 *1212:C *375:71 2.33679e-05
7 *193:8 *306:8 2.34077e-05
8 *1212:A *1212:C 0.000237969
9 *1402:A *1212:C 9.66668e-05
*RES
1 *1210:X *193:8 39.5536 
2 *193:8 *1212:C 49.6 
*END

*D_NET *194 0.00116041
*CONN
*I *1212:D I *D sky130_fd_sc_hd__or4_2
*I *1211:X O *D sky130_fd_sc_hd__or4_2
*CAP
1 *1212:D 0
2 *1211:X 0.000339894
3 *194:10 0.000339894
4 *194:10 *1211:D 7.70117e-05
5 *194:10 *240:22 0.000365926
6 *192:14 *194:10 3.76854e-05
*RES
1 *1211:X *194:10 44.2143 
2 *194:10 *1212:D 38 
*END

*D_NET *195 0.00645701
*CONN
*I *1250:A2 I *D sky130_fd_sc_hd__o21bai_2
*I *1264:B I *D sky130_fd_sc_hd__or2_2
*I *1251:A2 I *D sky130_fd_sc_hd__o21ba_2
*I *1213:B I *D sky130_fd_sc_hd__nand2_2
*I *1212:X O *D sky130_fd_sc_hd__or4_2
*CAP
1 *1250:A2 0
2 *1264:B 0.00022248
3 *1251:A2 0
4 *1213:B 0.000241763
5 *1212:X 0.00043913
6 *195:50 0.000376048
7 *195:39 0.000377703
8 *195:20 0.00224468
9 *195:14 0.00221791
10 *1213:B *1213:A 4.21594e-06
11 *1213:B *196:51 0
12 *1213:B *262:33 1.12298e-05
13 *195:14 *1211:D 4.80427e-05
14 *195:14 *383:21 1.00084e-05
15 *195:20 *310:10 0.000112245
16 *195:39 *1213:A 0
17 *195:39 *262:33 3.4377e-06
18 *195:39 *273:78 0
19 *195:39 *273:97 0
20 *195:50 *1251:B1_N 0
21 *195:50 *273:97 0
22 *1212:A *195:14 3.31122e-05
23 *1212:C *195:14 1.08287e-05
24 *105:10 *195:39 1.5532e-05
25 *105:10 *195:50 7.71993e-05
26 *105:21 *195:50 1.14452e-05
*RES
1 *1212:X *195:14 49.9475 
2 *195:14 *195:20 19.4832 
3 *195:20 *1213:B 46.7635 
4 *195:20 *195:39 11.5893 
5 *195:39 *1251:A2 38 
6 *195:39 *195:50 17.61 
7 *195:50 *1264:B 26.5007 
8 *195:50 *1250:A2 23 
*END

*D_NET *196 0.00677364
*CONN
*I *1261:A2 I *D sky130_fd_sc_hd__a31o_2
*I *1263:A2 I *D sky130_fd_sc_hd__a31o_2
*I *1260:B1 I *D sky130_fd_sc_hd__o211a_2
*I *1242:B1 I *D sky130_fd_sc_hd__a211o_2
*I *1240:B I *D sky130_fd_sc_hd__or3_2
*I *1214:B I *D sky130_fd_sc_hd__nor2_2
*I *1213:Y O *D sky130_fd_sc_hd__nand2_2
*CAP
1 *1261:A2 2.61357e-05
2 *1263:A2 4.63523e-05
3 *1260:B1 0.000200421
4 *1242:B1 5.09002e-05
5 *1240:B 0
6 *1214:B 0.000283436
7 *1213:Y 5.58015e-05
8 *196:55 0.000387158
9 *196:51 0.000675789
10 *196:18 0.000953817
11 *196:10 0.000862055
12 *196:8 0.000705844
13 *1214:B *1172:A 0
14 *1214:B *1328:CLK 0
15 *1214:B *214:10 0.000187129
16 *1214:B *241:24 0.000239852
17 *1242:B1 *1242:A1 9.28339e-05
18 *1242:B1 *1242:A2 2.4754e-05
19 *1242:B1 *213:53 1.41077e-05
20 *1242:B1 *273:65 0.000224579
21 *1260:B1 *1335:CLK 0
22 *1260:B1 *225:14 0
23 *1260:B1 *228:10 0
24 *1260:B1 *265:35 1.14452e-05
25 *1261:A2 *1263:A1 1.02245e-05
26 *1261:A2 *1263:A3 0
27 *1263:A2 *1335:CLK 0
28 *1263:A2 *229:8 6.07611e-06
29 *196:18 *213:53 0
30 *196:18 *214:10 5.50049e-05
31 *196:18 *215:8 0.000431861
32 *196:18 *241:20 3.2729e-05
33 *196:18 *310:10 0
34 *196:51 *1213:A 9.20311e-06
35 *196:51 *1261:B1 2.93845e-05
36 *196:51 *1263:A1 1.02576e-05
37 *196:51 *230:10 9.17998e-05
38 *196:51 *262:10 0.000194327
39 *196:51 *262:33 1.38978e-05
40 *196:51 *387:10 7.75329e-06
41 *196:51 *387:12 1.06693e-05
42 *196:51 *387:51 8.96676e-05
43 *196:51 *388:25 6.68793e-05
44 *196:55 *1263:A1 1.42014e-05
45 *196:55 *1263:A3 0.000190131
46 *196:55 *228:10 5.67058e-05
47 *1083:B1 *196:51 2.60152e-05
48 *1213:B *196:51 0
49 *1328:D *196:18 6.68185e-05
50 *76:8 *196:18 2.99716e-05
51 *92:12 *1263:A2 2.22079e-05
52 *92:27 *196:51 0.00012838
53 *103:10 *196:8 5.41385e-05
54 *103:10 *196:51 8.29273e-05
*RES
1 *1213:Y *196:8 39.0979 
2 *196:8 *196:10 1.90571 
3 *196:10 *196:18 26.7657 
4 *196:18 *1214:B 29.2557 
5 *196:18 *1240:B 23 
6 *196:10 *1242:B1 40.5479 
7 *196:8 *196:51 27.2939 
8 *196:51 *196:55 18.5318 
9 *196:55 *1260:B1 41.5836 
10 *196:55 *1263:A2 39.2014 
11 *196:51 *1261:A2 23.6939 
*END

*D_NET *197 0.00378908
*CONN
*I *1248:C1 I *D sky130_fd_sc_hd__o211a_2
*I *1363:A I *D sky130_fd_sc_hd__clkdlybuf4s25_1
*I *1214:Y O *D sky130_fd_sc_hd__nor2_2
*CAP
1 *1248:C1 0
2 *1363:A 9.22766e-05
3 *1214:Y 0.000231922
4 *197:29 0.000757187
5 *197:8 0.00108139
6 *1363:A *208:45 3.91315e-05
7 *1363:A *212:8 0.000252022
8 *1363:A *263:113 5.36457e-05
9 *1363:A *382:10 0
10 *197:8 *1238:A_N 0.000139657
11 *197:8 *1238:B 3.74442e-05
12 *197:8 *1326:CLK 0
13 *197:8 *212:8 2.55642e-05
14 *197:8 *214:10 0
15 *197:8 *263:113 5.0135e-05
16 *197:29 *1241:A1 0.000146197
17 *197:29 *1241:A2 0.000721087
18 *197:29 *1241:B1_N 0.00014196
19 *197:29 *382:10 1.94693e-05
20 *74:8 *197:8 0
*RES
1 *1214:Y *197:8 43.4271 
2 *197:8 *1363:A 41.3143 
3 *197:8 *197:29 33.1043 
4 *197:29 *1248:C1 23 
*END

*D_NET *198 0.000232182
*CONN
*I *1217:A2 I *D sky130_fd_sc_hd__a21boi_2
*I *1216:Y O *D sky130_fd_sc_hd__nand2b_2
*CAP
1 *1217:A2 0
2 *1216:Y 6.132e-05
3 *198:8 6.132e-05
4 *198:8 *371:67 4.04496e-05
5 *198:8 *375:71 6.90927e-05
*RES
1 *1216:Y *198:8 39.9057 
2 *198:8 *1217:A2 38 
*END

*D_NET *199 0.000388004
*CONN
*I *1428:A I *D sky130_fd_sc_hd__dlygate4sd3_1
*I *1218:Y O *D sky130_fd_sc_hd__nand3_2
*CAP
1 *1428:A 2.53838e-05
2 *1218:Y 0.000140265
3 *199:8 0.000165649
4 *1428:A *376:16 5.67058e-05
5 *199:8 *200:14 0
6 *199:8 *333:8 0
*RES
1 *1218:Y *199:8 40.2579 
2 *199:8 *1428:A 38.6214 
*END

*D_NET *200 0.00258731
*CONN
*I *1220:C I *D sky130_fd_sc_hd__and3_2
*I *1219:X O *D sky130_fd_sc_hd__a21o_2
*CAP
1 *1220:C 0
2 *1219:X 3.56949e-05
3 *200:14 0.000547542
4 *200:8 0.000583236
5 *200:8 *1218:A 0.000228903
6 *200:8 *375:39 0.000228903
7 *200:14 *240:83 1.22803e-05
8 *200:14 *263:74 0
9 *200:14 *334:8 0.000533569
10 *200:14 *335:10 9.33642e-05
11 *200:14 *376:22 0
12 *200:14 *377:26 0
13 *68:8 *200:14 0.000323822
14 *199:8 *200:14 0
*RES
1 *1219:X *200:8 40.5271 
2 *200:8 *200:14 27.9879 
3 *200:14 *1220:C 23 
*END

*D_NET *201 0.00604572
*CONN
*I *1223:A_N I *D sky130_fd_sc_hd__and3b_2
*I *1228:A2 I *D sky130_fd_sc_hd__a21o_2
*I *1231:D I *D sky130_fd_sc_hd__and4_2
*I *1227:C I *D sky130_fd_sc_hd__and3_2
*I *1225:B I *D sky130_fd_sc_hd__or2_2
*I *1224:B I *D sky130_fd_sc_hd__nand2_2
*I *1221:X O *D sky130_fd_sc_hd__and4_2
*CAP
1 *1223:A_N 0
2 *1228:A2 0
3 *1231:D 0
4 *1227:C 0
5 *1225:B 0
6 *1224:B 0.000131904
7 *1221:X 0.000400742
8 *201:67 0.00033563
9 *201:45 0.000250335
10 *201:30 0.000748907
11 *201:28 0.00113083
12 *201:14 0.000646655
13 *201:12 0.00021812
14 *201:10 0.000400742
15 *1224:B *1224:A 6.29487e-05
16 *201:10 *332:10 0
17 *201:14 *1228:B1 0.000146195
18 *201:14 *263:61 0.000145358
19 *201:28 *1228:A1 5.56356e-05
20 *201:28 *1228:B1 1.71761e-05
21 *201:28 *1229:A_N 0.00016601
22 *201:28 *1230:B 3.70094e-05
23 *201:28 *263:39 0
24 *201:28 *378:50 4.89774e-05
25 *201:30 *1421:A 9.84851e-05
26 *201:30 *240:73 0.000231083
27 *201:45 *1421:A 5.19173e-05
28 *201:45 *203:8 0
29 *201:45 *240:51 0.000139657
30 *201:45 *263:39 0
31 *201:45 *378:10 8.51432e-05
32 *201:67 *1230:A 4.08537e-05
33 *201:67 *1230:B 0.000249909
34 *201:67 *1231:B 1.27508e-05
35 *201:67 *1231:C 6.17437e-06
36 *201:67 *208:6 8.91468e-07
37 *201:67 *240:73 9.65021e-05
38 *201:67 *263:29 0
39 *201:67 *263:33 0
40 *201:67 *378:65 1.8788e-05
41 *72:10 *201:67 7.03869e-05
*RES
1 *1221:X *201:10 43.1371 
2 *201:10 *201:12 15 
3 *201:12 *201:14 4.43286 
4 *201:14 *201:28 38.4929 
5 *201:28 *201:30 7.29143 
6 *201:30 *1224:B 25.5479 
7 *201:30 *201:45 35.7793 
8 *201:45 *1225:B 23 
9 *201:28 *1227:C 23 
10 *201:28 *201:67 37.7679 
11 *201:67 *1231:D 23 
12 *201:14 *1228:A2 23 
13 *201:12 *1223:A_N 23 
*END

*D_NET *202 0.00101656
*CONN
*I *1223:B I *D sky130_fd_sc_hd__and3b_2
*I *1222:X O *D sky130_fd_sc_hd__a31o_2
*CAP
1 *1223:B 0
2 *1222:X 0.000397958
3 *202:10 0.000397958
4 *202:10 *1209:D_N 5.50106e-05
5 *202:10 *332:10 0
6 *202:10 *376:57 0
7 *69:8 *202:10 0.000165634
*RES
1 *1222:X *202:10 45.8093 
2 *202:10 *1223:B 38 
*END

*D_NET *203 0.000631058
*CONN
*I *1226:B I *D sky130_fd_sc_hd__and3_2
*I *1224:Y O *D sky130_fd_sc_hd__nand2_2
*CAP
1 *1226:B 4.76846e-05
2 *1224:Y 0.000223829
3 *203:8 0.000271514
4 *1226:B *1226:C 5.37348e-06
5 *70:10 *203:8 8.26569e-05
6 *201:45 *203:8 0
*RES
1 *1224:Y *203:8 42.3707 
2 *203:8 *1226:B 38.6214 
*END

*D_NET *204 0.000226074
*CONN
*I *1226:C I *D sky130_fd_sc_hd__and3_2
*I *1225:X O *D sky130_fd_sc_hd__or2_2
*CAP
1 *1226:C 9.1253e-05
2 *1225:X 9.1253e-05
3 *1226:C *1226:A 3.81946e-05
4 *1226:B *1226:C 5.37348e-06
*RES
1 *1225:X *1226:C 48.0714 
*END

*D_NET *205 0.00190235
*CONN
*I *1230:B I *D sky130_fd_sc_hd__or2_2
*I *1229:A_N I *D sky130_fd_sc_hd__and3b_2
*I *1227:X O *D sky130_fd_sc_hd__and3_2
*CAP
1 *1230:B 0.000210771
2 *1229:A_N 0.000247977
3 *1227:X 0
4 *205:6 0.000458749
5 *1229:A_N *1228:A1 0.000143655
6 *1229:A_N *263:33 0
7 *1229:A_N *263:61 0.000141954
8 *1230:B *1227:B 0.000130312
9 *1230:B *1230:A 5.56356e-05
10 *1230:B *263:33 0
11 *1230:B *378:65 0
12 *71:10 *1229:A_N 6.03634e-05
13 *201:28 *1229:A_N 0.00016601
14 *201:28 *1230:B 3.70094e-05
15 *201:67 *1230:B 0.000249909
*RES
1 *1227:X *205:6 38 
2 *205:6 *1229:A_N 44.6493 
3 *205:6 *1230:B 43.2614 
*END

*D_NET *206 0.000713416
*CONN
*I *1229:B I *D sky130_fd_sc_hd__and3b_2
*I *1228:X O *D sky130_fd_sc_hd__a21o_2
*CAP
1 *1229:B 0.000229621
2 *1228:X 0.000229621
3 *1229:B *263:61 7.1349e-05
4 *71:10 *1229:B 0.000182826
*RES
1 *1228:X *1229:B 49.48 
*END

*D_NET *207 0.000378258
*CONN
*I *1232:C I *D sky130_fd_sc_hd__and3b_2
*I *1230:X O *D sky130_fd_sc_hd__or2_2
*CAP
1 *1232:C 0.000158097
2 *1230:X 0.000158097
3 *1232:C *1230:A 0
4 *1232:C *263:29 2.97769e-05
5 *72:10 *1232:C 3.22879e-05
*RES
1 *1230:X *1232:C 49.1589 
*END

*D_NET *208 0.00542971
*CONN
*I *1234:B I *D sky130_fd_sc_hd__nand2_2
*I *1232:A_N I *D sky130_fd_sc_hd__and3b_2
*I *1239:D I *D sky130_fd_sc_hd__and4_2
*I *1237:C I *D sky130_fd_sc_hd__and3_2
*I *1236:A2 I *D sky130_fd_sc_hd__a21o_2
*I *1233:B I *D sky130_fd_sc_hd__or2_2
*I *1231:X O *D sky130_fd_sc_hd__and4_2
*CAP
1 *1234:B 0
2 *1232:A_N 0
3 *1239:D 0
4 *1237:C 1.96353e-05
5 *1236:A2 7.32111e-05
6 *1233:B 0
7 *1231:X 0.000423375
8 *208:62 0.000215595
9 *208:54 0.000311571
10 *208:45 0.000570703
11 *208:23 9.28464e-05
12 *208:21 0.000761814
13 *208:12 0.000596318
14 *208:6 0.000924558
15 *1236:A2 *1236:A1 0.000186032
16 *1237:C *1236:A1 5.58003e-05
17 *1237:C *1237:B 3.34276e-06
18 *208:6 *263:23 3.45855e-05
19 *208:12 *1234:A 7.88828e-05
20 *208:12 *1235:C 5.37348e-06
21 *208:12 *209:10 8.96123e-05
22 *208:12 *263:23 8.7283e-06
23 *208:21 *212:8 1.7403e-05
24 *208:45 *1239:B 0.000498838
25 *208:45 *1239:C 3.22051e-05
26 *208:45 *212:8 6.41392e-05
27 *208:45 *263:113 5.41385e-05
28 *208:45 *338:10 3.7122e-06
29 *208:45 *382:10 0
30 *208:54 *1234:A 5.3304e-05
31 *208:54 *263:23 4.96717e-05
32 *208:62 *240:47 0.000164291
33 *1363:A *208:45 3.91315e-05
34 *201:67 *208:6 8.91468e-07
*RES
1 *1231:X *208:6 28.3857 
2 *208:6 *208:12 22.3743 
3 *208:12 *1233:B 38 
4 *208:12 *208:21 4.01857 
5 *208:21 *208:23 15 
6 *208:23 *1236:A2 25.0507 
7 *208:23 *1237:C 23.6214 
8 *208:21 *208:45 27.7807 
9 *208:45 *1239:D 23 
10 *208:6 *208:54 2.29929 
11 *208:54 *208:62 33.8321 
12 *208:62 *1232:A_N 23 
13 *208:54 *1234:B 23 
*END

*D_NET *209 0.000613237
*CONN
*I *1235:B I *D sky130_fd_sc_hd__and3_2
*I *1233:X O *D sky130_fd_sc_hd__or2_2
*CAP
1 *1235:B 0
2 *1233:X 0.00022307
3 *209:10 0.00022307
4 *73:8 *209:10 7.74854e-05
5 *208:12 *209:10 8.96123e-05
*RES
1 *1233:X *209:10 42.9921 
2 *209:10 *1235:B 38 
*END

*D_NET *210 0.000246605
*CONN
*I *1235:C I *D sky130_fd_sc_hd__and3_2
*I *1234:Y O *D sky130_fd_sc_hd__nand2_2
*CAP
1 *1235:C 7.29975e-05
2 *1234:Y 7.29975e-05
3 *1235:C *1234:A 0
4 *1235:C *1235:A 5.90675e-06
5 *1235:C *263:12 5.70419e-05
6 *1235:C *263:23 3.22879e-05
7 *208:12 *1235:C 5.37348e-06
*RES
1 *1234:Y *1235:C 48.0714 
*END

*D_NET *211 0.00122604
*CONN
*I *1238:C I *D sky130_fd_sc_hd__and3b_2
*I *1236:X O *D sky130_fd_sc_hd__a21o_2
*CAP
1 *1238:C 3.11405e-05
2 *1236:X 0.000486012
3 *211:10 0.000517153
4 *211:10 *1238:A_N 0
5 *211:10 *1326:CLK 1.02387e-05
6 *211:10 *212:8 0
7 *211:10 *338:10 0.000111106
8 *74:8 *211:10 7.03869e-05
*RES
1 *1236:X *211:10 47.1143 
2 *211:10 *1238:C 38.3832 
*END

*D_NET *212 0.00295811
*CONN
*I *1238:A_N I *D sky130_fd_sc_hd__and3b_2
*I *1241:A2 I *D sky130_fd_sc_hd__o21ba_2
*I *1237:X O *D sky130_fd_sc_hd__and3_2
*CAP
1 *1238:A_N 0.000129504
2 *1241:A2 0.000475235
3 *1237:X 0.000259121
4 *212:8 0.000863859
5 *1238:A_N *1238:B 1.05235e-05
6 *1363:A *212:8 0.000252022
7 *197:8 *1238:A_N 0.000139657
8 *197:8 *212:8 2.55642e-05
9 *197:29 *1241:A2 0.000721087
10 *208:21 *212:8 1.7403e-05
11 *208:45 *212:8 6.41392e-05
12 *211:10 *1238:A_N 0
13 *211:10 *212:8 0
*RES
1 *1237:X *212:8 44.1314 
2 *212:8 *1241:A2 48.2121 
3 *212:8 *1238:A_N 40.5271 
*END

*D_NET *213 0.00895555
*CONN
*I *1244:A2 I *D sky130_fd_sc_hd__a21o_2
*I *1242:A2 I *D sky130_fd_sc_hd__a211o_2
*I *1240:C I *D sky130_fd_sc_hd__or3_2
*I *1245:C I *D sky130_fd_sc_hd__nand3_2
*I *1243:A2 I *D sky130_fd_sc_hd__o21ba_2
*I *1247:A3 I *D sky130_fd_sc_hd__a31o_2
*I *1239:X O *D sky130_fd_sc_hd__and4_2
*CAP
1 *1244:A2 5.41014e-05
2 *1242:A2 3.11083e-05
3 *1240:C 0
4 *1245:C 0
5 *1243:A2 0.000539274
6 *1247:A3 0
7 *1239:X 0.000318801
8 *213:53 0.000513348
9 *213:45 0.000920873
10 *213:41 0.000659504
11 *213:32 0.000242175
12 *213:17 0.000755173
13 *213:6 0.000521512
14 *1242:A2 *1242:A1 3.89917e-05
15 *1242:A2 *273:65 2.02517e-05
16 *1243:A2 *1243:A1 0.000102389
17 *1243:A2 *1245:A 5.54987e-05
18 *1243:A2 *1245:B 2.93747e-05
19 *1243:A2 *1246:A 0.000191255
20 *1243:A2 *1246:C 0.000233709
21 *1243:A2 *217:22 2.98648e-05
22 *1244:A2 *1244:B1 2.24973e-05
23 *1244:A2 *241:73 0
24 *1244:A2 *372:38 3.47781e-05
25 *213:6 *1239:C 0.000233359
26 *213:6 *218:10 9.79925e-05
27 *213:17 *217:22 0.000141869
28 *213:17 *218:10 0.00016438
29 *213:17 *372:14 0.000412959
30 *213:17 *373:20 6.01971e-06
31 *213:32 *217:22 5.46706e-05
32 *213:32 *372:14 6.48142e-05
33 *213:41 *1244:B1 0.000227469
34 *213:41 *217:22 2.55642e-05
35 *213:41 *372:14 0.000302339
36 *213:41 *372:38 0.000314599
37 *213:41 *373:14 3.89207e-05
38 *213:45 *1242:A1 0.000607746
39 *213:45 *216:10 0.000275472
40 *213:45 *310:10 5.55172e-05
41 *213:45 *372:38 4.17736e-05
42 *213:45 *372:40 0.000256932
43 *213:53 *215:8 0
44 *213:53 *273:14 0
45 *213:53 *273:65 0.000279813
46 *1242:B1 *1242:A2 2.4754e-05
47 *1242:B1 *213:53 1.41077e-05
48 *196:18 *213:53 0
*RES
1 *1239:X *213:6 29.3386 
2 *213:6 *1247:A3 23 
3 *213:6 *213:17 21.6493 
4 *213:17 *1243:A2 47.2386 
5 *213:17 *213:32 0.849286 
6 *213:32 *1245:C 38 
7 *213:32 *213:41 8.24429 
8 *213:41 *213:45 25.15 
9 *213:45 *213:53 39.5079 
10 *213:53 *1240:C 23 
11 *213:45 *1242:A2 24.6157 
12 *213:41 *1244:A2 38.8493 
*END

*D_NET *214 0.00136276
*CONN
*I *1241:B1_N I *D sky130_fd_sc_hd__o21ba_2
*I *1240:X O *D sky130_fd_sc_hd__or3_2
*CAP
1 *1241:B1_N 5.74356e-05
2 *1240:X 0.000378674
3 *214:10 0.00043611
4 *214:10 *1238:B 0
5 *214:10 *1240:A 5.70419e-05
6 *214:10 *215:8 0
7 *214:10 *241:24 4.94073e-05
8 *214:10 *263:113 0
9 *1214:B *214:10 0.000187129
10 *75:8 *214:10 0
11 *76:8 *214:10 0
12 *196:18 *214:10 5.50049e-05
13 *197:8 *214:10 0
14 *197:29 *1241:B1_N 0.00014196
*RES
1 *1240:X *214:10 45.9543 
2 *214:10 *1241:B1_N 39.5743 
*END

*D_NET *215 0.0013124
*CONN
*I *1243:B1_N I *D sky130_fd_sc_hd__o21ba_2
*I *1242:X O *D sky130_fd_sc_hd__a211o_2
*CAP
1 *1243:B1_N 6.17932e-05
2 *1242:X 0.000337579
3 *215:8 0.000399372
4 *1243:B1_N *1246:A 8.1796e-05
5 *76:8 *215:8 0
6 *196:18 *215:8 0.000431861
7 *213:53 *215:8 0
8 *214:10 *215:8 0
*RES
1 *1242:X *215:8 45.54 
2 *215:8 *1243:B1_N 39.5743 
*END

*D_NET *216 0.00158154
*CONN
*I *1246:B I *D sky130_fd_sc_hd__and3_2
*I *1244:X O *D sky130_fd_sc_hd__a21o_2
*CAP
1 *1246:B 0
2 *1244:X 0.000484763
3 *216:10 0.000484763
4 *216:10 *310:10 0.000255929
5 *77:8 *216:10 8.0614e-05
6 *213:45 *216:10 0.000275472
*RES
1 *1244:X *216:10 47.8393 
2 *216:10 *1246:B 38 
*END

*D_NET *217 0.00111618
*CONN
*I *1248:A2 I *D sky130_fd_sc_hd__o211a_2
*I *1246:C I *D sky130_fd_sc_hd__and3_2
*I *1245:Y O *D sky130_fd_sc_hd__nand3_2
*CAP
1 *1248:A2 0
2 *1246:C 4.91854e-05
3 *1245:Y 0.000196358
4 *217:22 0.000147173
5 *1246:C *1245:A 0.000106277
6 *217:22 *1245:B 1.24376e-05
7 *217:22 *218:10 1.14452e-05
8 *217:22 *373:14 2.96051e-05
9 *217:22 *373:20 7.80251e-05
10 *1243:A2 *1246:C 0.000233709
11 *1243:A2 *217:22 2.98648e-05
12 *213:17 *217:22 0.000141869
13 *213:32 *217:22 5.46706e-05
14 *213:41 *217:22 2.55642e-05
*RES
1 *1245:Y *1246:C 48.5271 
2 *1245:Y *217:22 42.06 
3 *217:22 *1248:A2 38 
*END

*D_NET *218 0.000798509
*CONN
*I *1248:B1 I *D sky130_fd_sc_hd__o211a_2
*I *1247:X O *D sky130_fd_sc_hd__a31o_2
*CAP
1 *1248:B1 0
2 *1247:X 0.000149708
3 *218:10 0.000149708
4 *218:10 *373:20 0.000225275
5 *213:6 *218:10 9.79925e-05
6 *213:17 *218:10 0.00016438
7 *217:22 *218:10 1.14452e-05
*RES
1 *1247:X *218:10 42.5364 
2 *218:10 *1248:B1 38 
*END

*D_NET *219 0.0141715
*CONN
*I *1280:B I *D sky130_fd_sc_hd__or2_2
*I *1272:B I *D sky130_fd_sc_hd__or2_2
*I *1278:B I *D sky130_fd_sc_hd__or2_2
*I *1276:B I *D sky130_fd_sc_hd__or2_2
*I *1268:B I *D sky130_fd_sc_hd__or2_2
*I *1270:B I *D sky130_fd_sc_hd__or2_2
*I *1266:B I *D sky130_fd_sc_hd__or2_2
*I *1254:B1 I *D sky130_fd_sc_hd__a311o_2
*I *1250:B1_N I *D sky130_fd_sc_hd__o21bai_2
*I *1274:B I *D sky130_fd_sc_hd__or2_2
*I *1249:Y O *D sky130_fd_sc_hd__nor2_2
*CAP
1 *1280:B 3.84142e-05
2 *1272:B 0.00059266
3 *1278:B 0
4 *1276:B 2.73982e-05
5 *1268:B 0.000208667
6 *1270:B 0
7 *1266:B 0.000213655
8 *1254:B1 0
9 *1250:B1_N 9.23329e-05
10 *1274:B 0.000279195
11 *1249:Y 0.00021268
12 *219:71 0.000242018
13 *219:67 0.000648086
14 *219:56 0.00040253
15 *219:35 0.00118371
16 *219:27 0.00157002
17 *219:16 0.00088447
18 *219:12 0.000333195
19 *219:10 0.000312794
20 *219:8 0.000734811
21 *219:6 0.000251094
22 *1250:B1_N *220:8 0.000226022
23 *1250:B1_N *239:33 5.12254e-05
24 *1266:B *1270:A 1.32939e-05
25 *1266:B *1316:CLK 0.000390658
26 *1266:B *233:10 1.76557e-05
27 *1266:B *391:16 0.000160113
28 *1268:B *245:55 0.000423985
29 *1272:B *234:10 2.93747e-05
30 *1272:B *237:8 0
31 *1272:B *245:61 9.91798e-05
32 *1272:B *272:57 0
33 *1272:B *312:10 3.20613e-06
34 *1272:B *316:10 0.000168127
35 *1272:B *386:52 0
36 *1272:B *396:8 0
37 *1274:B *1274:A 5.67058e-05
38 *1274:B *1275:C1 0.000146418
39 *1274:B *1341:CLK 5.67058e-05
40 *1276:B *393:22 5.56356e-05
41 *219:6 *238:8 6.6978e-05
42 *219:10 *1277:A3 0
43 *219:10 *312:10 3.81419e-05
44 *219:10 *386:52 0
45 *219:12 *268:83 0
46 *219:12 *313:10 0.000169665
47 *219:12 *394:8 4.2812e-06
48 *219:16 *1259:A 0
49 *219:16 *268:83 0
50 *219:16 *394:8 4.80733e-05
51 *219:27 *385:53 2.93845e-05
52 *219:35 *1079:S0 0
53 *219:35 *1251:B1_N 0
54 *219:35 *1336:CLK 0
55 *219:35 *220:21 0
56 *219:35 *220:40 0.0002499
57 *219:35 *222:8 8.35561e-05
58 *219:35 *239:33 3.0647e-05
59 *219:35 *239:89 0
60 *219:35 *244:16 0.000111852
61 *219:35 *244:77 0
62 *219:35 *385:53 0.00023812
63 *219:35 *386:42 1.7992e-05
64 *219:56 *1254:A2 3.623e-05
65 *219:56 *220:8 0.000172197
66 *219:56 *239:23 9.00923e-05
67 *219:56 *239:33 0.000198206
68 *219:56 *248:18 1.27193e-05
69 *219:56 *273:97 0.000330627
70 *219:56 *384:27 0.000112705
71 *219:67 *1267:A3 0
72 *219:67 *1268:A 0
73 *219:67 *239:89 0
74 *219:67 *245:14 7.66819e-05
75 *219:67 *245:38 6.67764e-05
76 *219:67 *245:55 3.71611e-05
77 *219:67 *268:79 0.000123739
78 *219:67 *270:14 0
79 *219:67 *386:42 1.17152e-05
80 *219:71 *391:16 5.3304e-05
81 *1082:A0 *219:27 0.000140259
82 *1341:D *1274:B 8.55313e-05
83 *3:22 *219:56 0.000246112
84 *18:9 *1268:B 0.000368375
85 *18:15 *1272:B 0
86 *24:13 *1272:B 7.30978e-05
87 *85:8 *1268:B 1.88972e-05
88 *85:8 *219:67 0.000251597
89 *102:57 *219:67 0.000141879
90 *104:8 *219:67 5.56306e-05
91 *106:8 *219:67 0.000199298
92 *107:10 *219:27 5.40337e-05
*RES
1 *1249:Y *219:6 26.48 
2 *219:6 *219:8 15 
3 *219:8 *219:10 2.25786 
4 *219:10 *219:12 3.66643 
5 *219:12 *219:16 17.2579 
6 *219:16 *1274:B 29.815 
7 *219:16 *219:27 23.2443 
8 *219:27 *219:35 30.3493 
9 *219:35 *1250:B1_N 25.5271 
10 *219:35 *219:56 41.1546 
11 *219:56 *1254:B1 23 
12 *219:27 *219:67 12.18 
13 *219:67 *219:71 15.6214 
14 *219:71 *1266:B 29.1314 
15 *219:71 *1270:B 23 
16 *219:67 *1268:B 44.4007 
17 *219:12 *1276:B 38.6214 
18 *219:10 *1278:B 38 
19 *219:8 *1272:B 49.4964 
20 *219:6 *1280:B 23.6214 
*END

*D_NET *220 0.005564
*CONN
*I *1258:A I *D sky130_fd_sc_hd__nand2_2
*I *1254:A3 I *D sky130_fd_sc_hd__a311o_2
*I *1256:A3 I *D sky130_fd_sc_hd__a31o_2
*I *1253:A2 I *D sky130_fd_sc_hd__a21oi_2
*I *1252:A2 I *D sky130_fd_sc_hd__a211oi_2
*I *1250:Y O *D sky130_fd_sc_hd__o21bai_2
*CAP
1 *1258:A 0
2 *1254:A3 8.97748e-05
3 *1256:A3 0
4 *1253:A2 0.000241164
5 *1252:A2 0.000174797
6 *1250:Y 0.000173522
7 *220:71 0.000222672
8 *220:40 0.000377452
9 *220:23 0.000455531
10 *220:21 0.000359413
11 *220:8 0.000558369
12 *1252:A2 *239:33 0
13 *1252:A2 *384:8 0
14 *1252:A2 *384:27 0
15 *1253:A2 *384:29 3.45774e-05
16 *1254:A3 *1254:A2 2.02517e-05
17 *1254:A3 *223:10 1.41077e-05
18 *1254:A3 *384:29 0.000255642
19 *1254:A3 *385:12 0.000123934
20 *220:8 *273:97 0.000395895
21 *220:21 *239:73 0
22 *220:23 *223:10 3.7122e-06
23 *220:23 *384:29 0.000128723
24 *220:40 *222:8 0.000166513
25 *220:40 *239:73 0
26 *220:40 *301:8 2.95125e-05
27 *220:40 *384:72 1.75792e-05
28 *220:40 *385:21 0.000181125
29 *220:40 *385:25 6.99536e-05
30 *220:71 *1258:B 3.22785e-05
31 *220:71 *225:6 8.69383e-05
32 *220:71 *225:8 3.22051e-05
33 *220:71 *248:18 0.000202911
34 *220:71 *384:33 5.50106e-05
35 *220:71 *384:64 0.000364798
36 *1083:A1 *220:40 5.90675e-06
37 *1083:A2 *220:40 1.3523e-05
38 *1250:B1_N *220:8 0.000226022
39 *1257:B1 *220:71 2.80918e-05
40 *3:22 *220:21 0
41 *219:35 *220:21 0
42 *219:35 *220:40 0.0002499
43 *219:56 *220:8 0.000172197
*RES
1 *1250:Y *220:8 43.8621 
2 *220:8 *1252:A2 40.61 
3 *220:8 *220:21 18.3143 
4 *220:21 *220:23 1.57429 
5 *220:23 *1253:A2 23.3832 
6 *220:23 *220:40 39.1971 
7 *220:40 *1256:A3 23 
8 *220:21 *1254:A3 26.5007 
9 *1253:A2 *220:71 31.12 
10 *220:71 *1258:A 23 
*END

*D_NET *221 0.000541278
*CONN
*I *1252:B1 I *D sky130_fd_sc_hd__a211oi_2
*I *1251:X O *D sky130_fd_sc_hd__o21ba_2
*CAP
1 *1252:B1 0.000226836
2 *1251:X 0.000226836
3 *1252:B1 *1251:B1_N 7.43114e-05
4 *79:10 *1252:B1 1.32939e-05
*RES
1 *1251:X *1252:B1 49.3764 
*END

*D_NET *222 0.000757664
*CONN
*I *1255:A I *D sky130_fd_sc_hd__nor2_2
*I *1253:Y O *D sky130_fd_sc_hd__a21oi_2
*CAP
1 *1255:A 0
2 *1253:Y 0.000133629
3 *222:8 0.000133629
4 *222:8 *223:10 0.000151817
5 *222:8 *301:8 8.85189e-05
6 *219:35 *222:8 8.35561e-05
7 *220:40 *222:8 0.000166513
*RES
1 *1253:Y *222:8 43.075 
2 *222:8 *1255:A 38 
*END

*D_NET *223 0.00120195
*CONN
*I *1255:B I *D sky130_fd_sc_hd__nor2_2
*I *1254:X O *D sky130_fd_sc_hd__a311o_2
*CAP
1 *1255:B 0
2 *1254:X 0.00034628
3 *223:10 0.00034628
4 *223:10 *239:73 0
5 *223:10 *244:77 2.46933e-05
6 *223:10 *301:8 8.85189e-05
7 *223:10 *385:12 0.000226546
8 *1254:A3 *223:10 1.41077e-05
9 *220:23 *223:10 3.7122e-06
10 *222:8 *223:10 0.000151817
*RES
1 *1254:X *223:10 45.1257 
2 *223:10 *1255:B 38 
*END

*D_NET *224 0.00105971
*CONN
*I *1259:B I *D sky130_fd_sc_hd__and3_2
*I *1256:X O *D sky130_fd_sc_hd__a31o_2
*CAP
1 *1259:B 0
2 *1256:X 0.000226095
3 *224:10 0.000226095
4 *224:10 *226:10 0.000140949
5 *224:10 *261:10 2.93845e-05
6 *1083:A1 *224:10 0.000146822
7 *1083:A2 *224:10 0.000191255
8 *1083:B1 *224:10 9.91101e-05
*RES
1 *1256:X *224:10 44.3386 
2 *224:10 *1259:B 38 
*END

*D_NET *225 0.00362871
*CONN
*I *1258:B I *D sky130_fd_sc_hd__nand2_2
*I *1260:C1 I *D sky130_fd_sc_hd__o211a_2
*I *1261:A3 I *D sky130_fd_sc_hd__a31o_2
*I *1263:A3 I *D sky130_fd_sc_hd__a31o_2
*I *1257:X O *D sky130_fd_sc_hd__a31o_2
*CAP
1 *1258:B 1.50715e-05
2 *1260:C1 0.000295748
3 *1261:A3 0
4 *1263:A3 0.000126679
5 *1257:X 1.91817e-05
6 *225:14 0.000269176
7 *225:8 0.000753695
8 *225:6 0.000349702
9 *1260:C1 *1260:A1 1.28818e-05
10 *1260:C1 *265:25 0.000132661
11 *1263:A3 *1263:A1 0.000209281
12 *225:6 *248:18 4.73208e-05
13 *225:8 *226:10 0.000102052
14 *225:8 *248:18 9.5084e-05
15 *225:8 *265:25 0.000697608
16 *225:14 *228:10 5.26308e-05
17 *225:14 *248:18 0
18 *225:14 *273:8 8.54136e-05
19 *225:14 *273:10 1.09886e-05
20 *1260:B1 *225:14 0
21 *1261:A2 *1263:A3 0
22 *92:12 *225:14 1.19796e-05
23 *196:55 *1263:A3 0.000190131
24 *220:71 *1258:B 3.22785e-05
25 *220:71 *225:6 8.69383e-05
26 *220:71 *225:8 3.22051e-05
*RES
1 *1257:X *225:6 24.0979 
2 *225:6 *225:8 9.67357 
3 *225:8 *225:14 33.3143 
4 *225:14 *1263:A3 27.1221 
5 *225:14 *1261:A3 23 
6 *225:8 *1260:C1 29.0693 
7 *225:6 *1258:B 23.4971 
*END

*D_NET *226 0.00121305
*CONN
*I *1259:C I *D sky130_fd_sc_hd__and3_2
*I *1258:Y O *D sky130_fd_sc_hd__nand2_2
*CAP
1 *1259:C 3.27105e-05
2 *1258:Y 0.000319657
3 *226:10 0.000352368
4 *1259:C *244:24 5.50106e-05
5 *226:10 *1259:A 1.14452e-05
6 *226:10 *248:10 0
7 *226:10 *387:8 4.48568e-05
8 *226:10 *387:10 6.88552e-05
9 *1083:B1 *226:10 8.51432e-05
10 *224:10 *226:10 0.000140949
11 *225:8 *226:10 0.000102052
*RES
1 *1258:Y *226:10 45.83 
2 *226:10 *1259:C 38.6214 
*END

*D_NET *227 0.000431164
*CONN
*I *1262:A2 I *D sky130_fd_sc_hd__o21ba_2
*I *1260:X O *D sky130_fd_sc_hd__o211a_2
*CAP
1 *1262:A2 4.24211e-05
2 *1260:X 8.83236e-05
3 *227:8 0.000130745
4 *227:8 *228:10 0.000169674
*RES
1 *1260:X *227:8 40.2579 
2 *227:8 *1262:A2 38.6214 
*END

*D_NET *228 0.00105883
*CONN
*I *1262:B1_N I *D sky130_fd_sc_hd__o21ba_2
*I *1261:X O *D sky130_fd_sc_hd__a31o_2
*CAP
1 *1262:B1_N 6.83325e-05
2 *1261:X 0.0002354
3 *228:10 0.000303732
4 *1262:B1_N *265:35 4.67488e-05
5 *228:10 *1260:A1 6.08032e-05
6 *1260:B1 *228:10 0
7 *82:8 *228:10 6.48049e-05
8 *196:55 *228:10 5.67058e-05
9 *225:14 *228:10 5.26308e-05
10 *227:8 *228:10 0.000169674
*RES
1 *1261:X *228:10 43.6964 
2 *228:10 *1262:B1_N 39.0979 
*END

*D_NET *229 0.000938704
*CONN
*I *1265:A1 I *D sky130_fd_sc_hd__a21oi_2
*I *1263:X O *D sky130_fd_sc_hd__a31o_2
*CAP
1 *1265:A1 5.10516e-05
2 *1263:X 0.000242724
3 *229:8 0.000293776
4 *1265:A1 *1265:B1 0.000143655
5 *229:8 *1335:CLK 0
6 *229:8 *273:10 0
7 *1263:A2 *229:8 6.07611e-06
8 *83:10 *1265:A1 6.17437e-06
9 *83:10 *229:8 0.000195248
10 *92:12 *229:8 0
*RES
1 *1263:X *229:8 43.075 
2 *229:8 *1265:A1 39.5743 
*END

*D_NET *230 0.00222088
*CONN
*I *1265:A2 I *D sky130_fd_sc_hd__a21oi_2
*I *1264:X O *D sky130_fd_sc_hd__or2_2
*CAP
1 *1265:A2 0.000196002
2 *1264:X 0.000377284
3 *230:10 0.000573286
4 *1265:A2 *1084:B 0.00024064
5 *1265:A2 *1265:B1 0.000122217
6 *1265:A2 *262:10 0.000141954
7 *1265:A2 *387:18 5.67058e-05
8 *230:10 *330:8 0
9 *230:10 *387:10 2.46345e-05
10 *230:10 *387:12 0.000123172
11 *230:10 *387:18 0.000219882
12 *230:10 *387:51 5.3304e-05
13 *230:10 *388:12 0
14 *196:51 *230:10 9.17998e-05
*RES
1 *1264:X *230:10 45.6021 
2 *230:10 *1265:A2 43.8621 
*END

*D_NET *231 0.00108505
*CONN
*I *1267:B1 I *D sky130_fd_sc_hd__o311a_2
*I *1266:X O *D sky130_fd_sc_hd__or2_2
*CAP
1 *1267:B1 0
2 *1266:X 0.000304327
3 *231:8 0.000304327
4 *231:8 *245:31 0.000195238
5 *231:8 *252:10 0
6 *231:8 *252:27 0
7 *231:8 *268:46 0
8 *231:8 *320:10 9.32422e-05
9 *3:22 *231:8 0.000187913
*RES
1 *1266:X *231:8 45.8921 
2 *231:8 *1267:B1 38 
*END

*D_NET *232 0.000420577
*CONN
*I *1269:B1 I *D sky130_fd_sc_hd__o311a_2
*I *1268:X O *D sky130_fd_sc_hd__or2_2
*CAP
1 *1269:B1 0
2 *1268:X 8.35722e-05
3 *232:8 8.35722e-05
4 *232:8 *1268:A 0.000162422
5 *232:8 *1269:A3 6.16439e-05
6 *232:8 *270:14 2.93666e-05
*RES
1 *1268:X *232:8 40.2579 
2 *232:8 *1269:B1 38 
*END

*D_NET *233 0.000860948
*CONN
*I *1271:B1 I *D sky130_fd_sc_hd__o311a_2
*I *1270:X O *D sky130_fd_sc_hd__or2_2
*CAP
1 *1271:B1 0
2 *1270:X 0.000139004
3 *233:10 0.000139004
4 *233:10 *1270:A 0.000178517
5 *233:10 *391:16 0.000301012
6 *1266:B *233:10 1.76557e-05
7 *3:22 *233:10 8.57549e-05
*RES
1 *1270:X *233:10 42.3086 
2 *233:10 *1271:B1 38 
*END

*D_NET *234 0.00143135
*CONN
*I *1273:B1 I *D sky130_fd_sc_hd__o311a_2
*I *1272:X O *D sky130_fd_sc_hd__or2_2
*CAP
1 *1273:B1 0
2 *1272:X 0.000606017
3 *234:10 0.000606017
4 *234:10 *1081:A1 0
5 *234:10 *1271:A3 4.49084e-05
6 *234:10 *1273:A3 2.26406e-05
7 *234:10 *245:57 6.60479e-05
8 *234:10 *245:61 9.88521e-06
9 *234:10 *249:10 0
10 *1272:B *234:10 2.93747e-05
11 *1339:D *234:10 4.64637e-05
*RES
1 *1272:X *234:10 46.12 
2 *234:10 *1273:B1 38 
*END

*D_NET *235 0.000437644
*CONN
*I *1275:B1 I *D sky130_fd_sc_hd__o311a_2
*I *1274:X O *D sky130_fd_sc_hd__or2_2
*CAP
1 *1275:B1 7.66177e-05
2 *1274:X 7.66177e-05
3 *1275:B1 *1275:C1 0.00010018
4 *1275:B1 *1341:CLK 4.66047e-05
5 *102:25 *1275:B1 0.000137624
*RES
1 *1274:X *1275:B1 48.5479 
*END

*D_NET *236 0.000751244
*CONN
*I *1277:B1 I *D sky130_fd_sc_hd__o311a_2
*I *1276:X O *D sky130_fd_sc_hd__or2_2
*CAP
1 *1277:B1 0
2 *1276:X 0.000292945
3 *236:10 0.000292945
4 *236:10 *1277:A3 1.14452e-05
5 *236:10 *268:83 8.16356e-05
6 *236:10 *393:8 5.67058e-05
7 *236:10 *393:22 1.55671e-05
8 *89:8 *236:10 0
*RES
1 *1276:X *236:10 42.785 
2 *236:10 *1277:B1 38 
*END

*D_NET *237 0.00254068
*CONN
*I *1279:B1 I *D sky130_fd_sc_hd__o311a_2
*I *1278:X O *D sky130_fd_sc_hd__or2_2
*CAP
1 *1279:B1 0.000246072
2 *1278:X 0.000257233
3 *237:8 0.000503305
4 *1279:B1 *1081:A2 0.000127609
5 *1279:B1 *1081:A3 8.52481e-05
6 *1279:B1 *1279:A3 5.50049e-05
7 *1279:B1 *1279:C1 0.000199412
8 *1279:B1 *1408:A 5.70419e-05
9 *1279:B1 *1411:A 0.00010018
10 *1279:B1 *265:65 0.00044458
11 *1279:B1 *312:10 0.000148688
12 *237:8 *1277:A3 0
13 *237:8 *265:93 0
14 *237:8 *272:57 0
15 *237:8 *312:10 0.000316308
16 *1272:B *237:8 0
*RES
1 *1278:X *237:8 43.075 
2 *237:8 *1279:B1 47.6943 
*END

*D_NET *238 0.00247603
*CONN
*I *1281:B1 I *D sky130_fd_sc_hd__o311a_2
*I *1280:X O *D sky130_fd_sc_hd__or2_2
*CAP
1 *1281:B1 0.000326903
2 *1280:X 0.000224135
3 *238:8 0.000551038
4 *1281:B1 *1281:A3 0.000658711
5 *1281:B1 *1281:C1 0.000267689
6 *1281:B1 *265:69 0.000141879
7 *1281:B1 *272:57 0.000119931
8 *238:8 *265:82 9.84794e-05
9 *238:8 *265:93 2.02872e-05
10 *219:6 *238:8 6.6978e-05
*RES
1 *1280:X *238:8 41.9564 
2 *238:8 *1281:B1 48.7093 
*END

*D_NET *239 0.0222633
*CONN
*I *1356:A I *D sky130_fd_sc_hd__clkbuf_16
*I *1355:A I *D sky130_fd_sc_hd__clkbuf_16
*I *1352:A I *D sky130_fd_sc_hd__clkbuf_16
*I *1351:A I *D sky130_fd_sc_hd__clkbuf_16
*I *1354:A I *D sky130_fd_sc_hd__clkbuf_16
*I *1353:A I *D sky130_fd_sc_hd__clkbuf_16
*I *1350:A I *D sky130_fd_sc_hd__clkbuf_16
*I *1349:A I *D sky130_fd_sc_hd__clkbuf_16
*I *1348:X O *D sky130_fd_sc_hd__clkbuf_16
*CAP
1 *1356:A 6.82552e-05
2 *1355:A 0
3 *1352:A 0
4 *1351:A 5.57408e-05
5 *1354:A 0.000113063
6 *1353:A 0
7 *1350:A 6.5292e-05
8 *1349:A 9.0032e-05
9 *1348:X 0.000190809
10 *239:179 0.000751851
11 *239:170 0.000758621
12 *239:161 0.000160898
13 *239:153 0.000823904
14 *239:124 0.000574292
15 *239:122 0.00128849
16 *239:110 0.00183251
17 *239:105 0.000383779
18 *239:89 0.000804402
19 *239:73 0.0012279
20 *239:51 8.73935e-05
21 *239:35 0.00092306
22 *239:33 0.00172218
23 *239:23 0.00250224
24 *239:10 0.0012302
25 *1349:A *240:22 7.43212e-05
26 *1350:A *274:10 8.93625e-05
27 *1351:A *242:10 2.53095e-05
28 *1356:A *247:10 6.61902e-05
29 *239:23 *1075:A 2.93845e-05
30 *239:23 *244:91 0
31 *239:23 *273:97 2.25809e-05
32 *239:23 *365:25 0
33 *239:33 *1244:B1 7.62945e-05
34 *239:33 *1251:B1_N 0.000115382
35 *239:33 *273:78 0.000282265
36 *239:33 *273:97 7.34394e-06
37 *239:35 *1210:B 7.74369e-05
38 *239:35 *1244:B1 8.23069e-05
39 *239:35 *310:10 0
40 *239:35 *373:14 9.6289e-05
41 *239:35 *373:20 0.000215344
42 *239:51 *274:10 1.14667e-05
43 *239:73 *1336:CLK 1.83667e-05
44 *239:73 *244:77 8.48476e-05
45 *239:73 *301:8 0
46 *239:73 *385:12 3.21327e-05
47 *239:89 *1336:CLK 0.000125802
48 *239:89 *270:14 0.000198196
49 *239:105 *1430:A 3.26745e-05
50 *239:110 *1430:A 0.000229094
51 *239:122 *266:59 0
52 *239:122 *367:51 4.35681e-06
53 *239:122 *370:22 0
54 *239:124 *340:8 7.03869e-05
55 *239:153 *1175:A1 6.17437e-06
56 *239:153 *246:46 0.00011218
57 *239:161 *353:56 0
58 *239:179 *246:46 6.7911e-05
59 *239:179 *247:10 0.000143997
60 *239:179 *353:56 0
61 *239:179 *354:10 6.22475e-05
62 *239:179 *354:20 0.000119921
63 *1092:A *239:124 6.51997e-06
64 *1094:D *239:124 0.000113853
65 *1175:B1 *239:153 4.34803e-05
66 *1182:B1 *239:153 3.0647e-05
67 *1184:A2 *239:153 1.89178e-05
68 *1250:B1_N *239:33 5.12254e-05
69 *1252:A2 *239:33 0
70 *3:22 *239:73 0.000481998
71 *3:22 *239:89 0.000657242
72 *3:30 *239:23 0
73 *27:12 *239:23 1.58805e-05
74 *54:8 *239:23 0
75 *55:10 *239:153 9.20311e-06
76 *55:10 *239:161 2.93747e-05
77 *55:10 *239:170 1.21972e-05
78 *79:10 *239:33 5.02972e-05
79 *84:10 *239:89 5.31444e-05
80 *108:8 *239:124 3.84404e-05
81 *110:12 *239:124 0.000112855
82 *114:10 *239:124 6.23469e-05
83 *115:8 *239:122 0
84 *116:80 *239:153 8.16253e-05
85 *117:12 *239:124 0
86 *117:20 *239:122 0.000321343
87 *117:20 *239:124 7.29657e-05
88 *124:14 *239:124 0.000108818
89 *124:78 *239:122 6.51012e-05
90 *124:78 *239:124 0.000106527
91 *127:35 *239:122 9.18423e-05
92 *129:16 *239:10 1.55869e-05
93 *129:16 *239:23 0.000118332
94 *129:16 *239:105 8.31545e-05
95 *129:16 *239:110 4.44424e-05
96 *130:10 *239:122 5.06189e-05
97 *168:10 *239:122 7.13307e-05
98 *169:10 *239:110 5.12254e-05
99 *169:10 *239:122 3.0647e-05
100 *169:10 *239:153 4.5051e-05
101 *169:14 *239:110 3.3577e-05
102 *169:14 *239:153 2.98648e-05
103 *170:8 *239:122 0
104 *170:12 *239:153 0.000406763
105 *170:46 *239:153 1.83667e-05
106 *185:38 *239:179 0
107 *185:47 *239:179 0
108 *185:58 *239:179 0
109 *192:14 *239:35 7.50918e-05
110 *219:35 *239:33 3.0647e-05
111 *219:35 *239:89 0
112 *219:56 *239:23 9.00923e-05
113 *219:56 *239:33 0.000198206
114 *219:67 *239:89 0
115 *220:21 *239:73 0
116 *220:40 *239:73 0
117 *223:10 *239:73 0
*RES
1 *1348:X *239:10 25.2216 
2 *239:10 *239:23 48.4927 
3 *239:23 *239:33 33.27 
4 *239:33 *239:35 17.0479 
5 *239:35 *1349:A 39.5743 
6 *239:33 *239:51 15.4143 
7 *239:51 *1350:A 24.7814 
8 *239:23 *239:73 27.3664 
9 *239:73 *1353:A 38 
10 *239:73 *239:89 31.0846 
11 *239:89 *1354:A 24.8125 
12 *1348:X *239:105 24.6002 
13 *239:105 *239:110 6.78911 
14 *239:110 *239:122 31.1157 
15 *239:122 *239:124 13.1743 
16 *239:124 *1351:A 39.0979 
17 *239:122 *1352:A 38 
18 *239:110 *239:153 30.7636 
19 *239:153 *239:161 16.595 
20 *239:161 *1355:A 23 
21 *239:161 *239:170 16.0979 
22 *239:170 *239:179 28.8889 
23 *239:179 *1356:A 24.7504 
*END

*D_NET *240 0.0122807
*CONN
*I *1327:CLK I *D sky130_fd_sc_hd__dfxtp_2
*I *1324:CLK I *D sky130_fd_sc_hd__dfxtp_2
*I *1321:CLK I *D sky130_fd_sc_hd__dfxtp_2
*I *1320:CLK I *D sky130_fd_sc_hd__dfxtp_2
*I *1318:CLK I *D sky130_fd_sc_hd__dfxtp_2
*I *1323:CLK I *D sky130_fd_sc_hd__dfxtp_2
*I *1322:CLK I *D sky130_fd_sc_hd__dfxtp_2
*I *1325:CLK I *D sky130_fd_sc_hd__dfxtp_2
*I *1319:CLK I *D sky130_fd_sc_hd__dfxtp_2
*I *1349:X O *D sky130_fd_sc_hd__clkbuf_16
*CAP
1 *1327:CLK 0.000110403
2 *1324:CLK 7.83063e-05
3 *1321:CLK 0
4 *1320:CLK 9.09998e-05
5 *1318:CLK 0
6 *1323:CLK 0.000192726
7 *1322:CLK 0.00045075
8 *1325:CLK 0.000535175
9 *1319:CLK 0
10 *1349:X 0.000809136
11 *240:83 0.000114492
12 *240:77 0.000663988
13 *240:73 0.00107949
14 *240:51 0.000736369
15 *240:47 0.00119529
16 *240:32 0.00115662
17 *240:28 0.000397679
18 *240:24 0.000289732
19 *240:22 0.000738637
20 *240:8 7.04991e-05
21 *1323:CLK *378:50 0.000173452
22 *1324:CLK *381:10 2.97099e-05
23 *1327:CLK *1237:B 3.13952e-05
24 *240:8 *375:71 0.000143166
25 *240:22 *1210:B 0.000351997
26 *240:22 *1211:D 0.000174789
27 *240:22 *372:22 0.000308643
28 *240:32 *381:10 3.71887e-05
29 *240:32 *381:28 5.76359e-05
30 *240:47 *263:29 0
31 *240:47 *263:33 0
32 *240:47 *263:97 0
33 *240:47 *381:10 0
34 *240:51 *1421:A 0.000166532
35 *240:51 *263:33 0
36 *240:73 *1421:A 9.84851e-05
37 *240:73 *378:65 0.000188927
38 *240:73 *379:14 0.000142173
39 *240:77 *377:10 0.00023877
40 *240:83 *371:37 0
41 *1320:D *1320:CLK 9.41704e-05
42 *1321:D *240:77 5.92579e-05
43 *1322:D *1322:CLK 1.64354e-05
44 *1325:D *1325:CLK 4.9054e-06
45 *1349:A *240:22 7.43212e-05
46 *68:8 *240:83 0.000168754
47 *194:10 *240:22 0.000365926
48 *200:14 *240:83 1.22803e-05
49 *201:30 *240:73 0.000231083
50 *201:45 *240:51 0.000139657
51 *201:67 *240:73 9.65021e-05
52 *208:62 *240:47 0.000164291
*RES
1 *1349:X *240:8 39.9057 
2 *240:8 *1319:CLK 38 
3 *1349:X *240:22 39.82 
4 *240:22 *240:24 15 
5 *240:24 *240:28 18.3143 
6 *240:28 *240:32 3.49036 
7 *240:32 *1325:CLK 29.9496 
8 *240:32 *240:47 22.9232 
9 *240:47 *240:51 17.61 
10 *240:51 *1322:CLK 30.3121 
11 *240:51 *1323:CLK 27.4536 
12 *240:47 *240:73 28.485 
13 *240:73 *240:77 9.21786 
14 *240:77 *240:83 32.61 
15 *240:83 *1318:CLK 23 
16 *240:77 *1320:CLK 24.5743 
17 *240:73 *1321:CLK 23 
18 *240:28 *1324:CLK 24.5743 
19 *240:24 *1327:CLK 40.2579 
*END

*D_NET *241 0.00926561
*CONN
*I *1305:CLK I *D sky130_fd_sc_hd__dfxtp_2
*I *1306:CLK I *D sky130_fd_sc_hd__dfxtp_2
*I *1331:CLK I *D sky130_fd_sc_hd__dfxtp_2
*I *1357:A I *D sky130_fd_sc_hd__clkbuf_4
*I *1346:CLK I *D sky130_fd_sc_hd__dfxtp_2
*I *1329:CLK I *D sky130_fd_sc_hd__dfxtp_2
*I *1328:CLK I *D sky130_fd_sc_hd__dfxtp_2
*I *1304:CLK I *D sky130_fd_sc_hd__dfxtp_2
*I *1326:CLK I *D sky130_fd_sc_hd__dfxtp_2
*I *1350:X O *D sky130_fd_sc_hd__clkbuf_16
*CAP
1 *1305:CLK 4.49871e-05
2 *1306:CLK 0.000187267
3 *1331:CLK 4.24816e-05
4 *1357:A 0.000358064
5 *1346:CLK 0.00030754
6 *1329:CLK 2.34823e-05
7 *1328:CLK 2.34823e-05
8 *1304:CLK 0.000112914
9 *1326:CLK 0.000264241
10 *1350:X 4.49871e-05
11 *241:75 0.000720831
12 *241:73 0.000752093
13 *241:24 0.000690065
14 *241:20 0.000763511
15 *241:18 0.000944765
16 *241:8 0.000906062
17 *241:6 0.000348897
18 *1304:CLK *259:10 5.0135e-05
19 *1326:CLK *259:10 1.19692e-05
20 *1346:CLK *1107:A 6.07611e-06
21 *1346:CLK *372:14 0
22 *241:8 *1107:A 1.37246e-05
23 *241:8 *274:10 0
24 *241:8 *372:14 0
25 *241:8 *372:38 0
26 *241:18 *248:45 3.22879e-05
27 *241:18 *372:8 0.000482529
28 *241:18 *373:10 7.9199e-05
29 *241:20 *372:8 9.88259e-05
30 *241:24 *1172:A 0.00010655
31 *241:24 *1240:A 9.84851e-05
32 *241:24 *273:35 0.000357631
33 *241:73 *273:105 0.000230874
34 *241:73 *372:38 0
35 *1214:B *1328:CLK 0
36 *1214:B *241:24 0.000239852
37 *1244:A2 *241:73 0
38 *1304:D *1304:CLK 5.50106e-05
39 *1305:D *1305:CLK 6.17437e-06
40 *1328:D *241:20 0.00027142
41 *1329:D *241:18 1.64354e-05
42 *1331:D *241:75 1.64354e-05
43 *28:8 *1346:CLK 0
44 *52:8 *1304:CLK 0.000130433
45 *52:8 *1326:CLK 1.14452e-05
46 *53:10 *241:8 0.000138718
47 *53:10 *241:73 1.14452e-05
48 *74:8 *1326:CLK 0.000171906
49 *196:18 *241:20 3.2729e-05
50 *197:8 *1326:CLK 0
51 *211:10 *1326:CLK 1.02387e-05
52 *214:10 *241:24 4.94073e-05
*RES
1 *1350:X *241:6 38 
2 *241:6 *241:8 2.25786 
3 *241:8 *241:18 26.4136 
4 *241:18 *241:20 8.24429 
5 *241:20 *241:24 23.7207 
6 *241:24 *1326:CLK 44.1314 
7 *241:24 *1304:CLK 40.8793 
8 *241:20 *1328:CLK 23.4971 
9 *241:18 *1329:CLK 23.4971 
10 *241:8 *1346:CLK 43.4893 
11 *241:6 *241:73 21.1314 
12 *241:73 *241:75 5.81554 
13 *241:75 *1357:A 28.453 
14 *241:75 *1331:CLK 24.1652 
15 *241:73 *1306:CLK 26.0036 
16 *1350:X *1305:CLK 46.6214 
*END

*D_NET *242 0.0117086
*CONN
*I *1290:CLK I *D sky130_fd_sc_hd__dfxtp_2
*I *1289:CLK I *D sky130_fd_sc_hd__dfxtp_2
*I *1358:A I *D sky130_fd_sc_hd__clkbuf_4
*I *1286:CLK I *D sky130_fd_sc_hd__dfxtp_2
*I *1282:CLK I *D sky130_fd_sc_hd__dfxtp_2
*I *1284:CLK I *D sky130_fd_sc_hd__dfxtp_2
*I *1285:CLK I *D sky130_fd_sc_hd__dfxtp_2
*I *1288:CLK I *D sky130_fd_sc_hd__dfxtp_2
*I *1287:CLK I *D sky130_fd_sc_hd__dfxtp_2
*I *1351:X O *D sky130_fd_sc_hd__clkbuf_16
*CAP
1 *1290:CLK 0
2 *1289:CLK 0
3 *1358:A 0
4 *1286:CLK 0
5 *1282:CLK 0.000296736
6 *1284:CLK 0
7 *1285:CLK 0.000201975
8 *1288:CLK 0.000737038
9 *1287:CLK 2.34823e-05
10 *1351:X 0.0015346
11 *242:106 0.000192879
12 *242:98 0.000803152
13 *242:61 0.00071741
14 *242:48 0.00120458
15 *242:44 0.000581932
16 *242:24 0.00122379
17 *242:18 0.000802243
18 *242:12 0.000338973
19 *242:10 0.000924331
20 *1282:CLK *1282:D 2.64616e-05
21 *1282:CLK *282:14 0.000270225
22 *1282:CLK *343:23 1.21972e-05
23 *1285:CLK *1133:B 0
24 *1288:CLK *1395:A 2.93845e-05
25 *1288:CLK *350:6 0.000164518
26 *1288:CLK *350:37 0.000126847
27 *242:10 *299:8 0
28 *242:18 *286:14 0
29 *242:18 *351:33 0.0002246
30 *242:18 *351:43 1.34354e-05
31 *242:18 *352:38 0.000167452
32 *242:24 *286:14 0.000141954
33 *242:61 *1133:B 0
34 *242:61 *264:39 0
35 *242:61 *264:41 0
36 *242:61 *333:8 0
37 *242:61 *376:8 0.000141879
38 *242:106 *348:14 5.2894e-05
39 *1287:D *1288:CLK 1.64354e-05
40 *1290:D *242:98 1.64354e-05
41 *1351:A *242:10 2.53095e-05
42 *34:8 *242:24 0
43 *108:8 *242:10 0
44 *134:12 *242:106 9.5912e-05
45 *137:20 *1288:CLK 7.81887e-05
46 *137:20 *242:24 0.000128893
47 *137:26 *242:24 0.000101899
48 *137:37 *242:18 6.50802e-05
49 *137:37 *242:24 2.22079e-05
50 *137:56 *242:18 0.000136486
51 *139:22 *1282:CLK 6.68186e-05
52 *152:10 *242:106 0
*RES
1 *1351:X *242:10 49.9314 
2 *242:10 *242:12 15 
3 *242:12 *242:18 22.9543 
4 *242:18 *242:24 24.9014 
5 *242:24 *1287:CLK 23.4971 
6 *242:24 *1288:CLK 37.6036 
7 *242:18 *242:44 15 
8 *242:44 *242:48 24.1971 
9 *242:48 *1285:CLK 41.5836 
10 *242:48 *242:61 8.59643 
11 *242:61 *1284:CLK 38 
12 *242:61 *1282:CLK 44.525 
13 *242:44 *1286:CLK 23 
14 *242:12 *1358:A 23 
15 *1351:X *242:98 33.0464 
16 *242:98 *242:106 34.1843 
17 *242:106 *1289:CLK 23 
18 *242:98 *1290:CLK 23 
*END

*D_NET *243 0.0123689
*CONN
*I *1292:CLK I *D sky130_fd_sc_hd__dfxtp_2
*I *1291:CLK I *D sky130_fd_sc_hd__dfxtp_2
*I *1293:CLK I *D sky130_fd_sc_hd__dfxtp_2
*I *1295:CLK I *D sky130_fd_sc_hd__dfxtp_2
*I *1359:A I *D sky130_fd_sc_hd__clkbuf_4
*I *1344:CLK I *D sky130_fd_sc_hd__dfxtp_2
*I *1294:CLK I *D sky130_fd_sc_hd__dfxtp_2
*I *1283:CLK I *D sky130_fd_sc_hd__dfxtp_2
*I *1330:CLK I *D sky130_fd_sc_hd__dfxtp_2
*I *1352:X O *D sky130_fd_sc_hd__clkbuf_16
*CAP
1 *1292:CLK 0
2 *1291:CLK 5.42583e-05
3 *1293:CLK 0.000255494
4 *1295:CLK 5.86438e-05
5 *1359:A 0
6 *1344:CLK 0.000355525
7 *1294:CLK 0
8 *1283:CLK 0
9 *1330:CLK 0.000529059
10 *1352:X 0.000394439
11 *243:71 0.000710797
12 *243:65 0.00111881
13 *243:40 0.000569627
14 *243:24 0.000717262
15 *243:20 0.000855342
16 *243:18 0.0005103
17 *243:14 0.000809853
18 *243:10 0.000479139
19 *1291:CLK *346:8 4.53082e-05
20 *1293:CLK *328:10 0.000161121
21 *1293:CLK *344:14 1.32302e-05
22 *1330:CLK *1128:A 5.45541e-05
23 *1330:CLK *282:6 0.000142678
24 *1330:CLK *342:8 8.48502e-06
25 *1344:CLK *1111:A1 5.24393e-05
26 *1344:CLK *1152:A1 0.000199701
27 *1344:CLK *266:38 4.06849e-05
28 *243:10 *307:12 4.43717e-05
29 *243:14 *307:12 9.63918e-05
30 *243:20 *342:8 0.000175083
31 *243:24 *342:8 0.000189861
32 *243:40 *1152:A1 0.000199701
33 *243:40 *339:10 0
34 *243:65 *1091:A_N 0.000248254
35 *243:65 *1091:C 0.00029519
36 *243:65 *1101:B 2.93747e-05
37 *243:65 *346:8 7.34019e-05
38 *243:65 *346:21 5.3304e-05
39 *243:71 *328:10 0.000192087
40 *1128:B *1330:CLK 2.95423e-05
41 *1147:A *243:71 0.000220454
42 *1151:D1 *243:71 7.03766e-05
43 *1283:D *243:24 1.64354e-05
44 *1293:D *1293:CLK 3.09254e-05
45 *1344:D *1344:CLK 0.000129006
46 *40:10 *243:10 2.01531e-05
47 *41:10 *1293:CLK 3.83778e-05
48 *43:16 *1295:CLK 9.5877e-05
49 *96:10 *243:18 5.12254e-05
50 *96:10 *243:20 0.00011733
51 *96:10 *243:65 2.93845e-05
52 *97:38 *243:71 0
53 *114:10 *243:18 3.0918e-05
54 *114:10 *243:20 4.67488e-05
55 *114:10 *243:65 0.000124196
56 *115:8 *243:10 7.80354e-05
57 *115:8 *243:14 9.63918e-05
58 *115:24 *1344:CLK 0
59 *116:29 *1293:CLK 0
60 *124:28 *1344:CLK 0.000413052
61 *124:28 *243:40 0.000277705
62 *124:78 *243:10 1.04196e-05
63 *125:12 *1344:CLK 0.00020775
64 *132:10 *243:71 0.000114074
65 *133:77 *243:71 2.72055e-05
66 *153:10 *243:71 0.000199701
67 *156:10 *243:71 1.80023e-05
68 *157:10 *243:71 0.000141879
*RES
1 *1352:X *243:10 44.2143 
2 *243:10 *243:14 17.61 
3 *243:14 *243:18 1.595 
4 *243:18 *243:20 10.15 
5 *243:20 *243:24 4.45357 
6 *243:24 *1330:CLK 33.15 
7 *243:24 *1283:CLK 23 
8 *243:20 *243:40 20.7793 
9 *243:40 *1294:CLK 38 
10 *243:40 *1344:CLK 47.7357 
11 *243:18 *1359:A 23 
12 *243:14 *243:65 14.9143 
13 *243:65 *243:71 26.2064 
14 *243:71 *1295:CLK 39.0979 
15 *243:71 *1293:CLK 42.6814 
16 *243:65 *1291:CLK 24.0979 
17 *243:10 *1292:CLK 38 
*END

*D_NET *244 0.0130683
*CONN
*I *1336:CLK I *D sky130_fd_sc_hd__dfxtp_2
*I *1301:CLK I *D sky130_fd_sc_hd__dfxtp_2
*I *1332:CLK I *D sky130_fd_sc_hd__dfxtp_2
*I *1345:CLK I *D sky130_fd_sc_hd__dfxtp_2
*I *1333:CLK I *D sky130_fd_sc_hd__dfxtp_2
*I *1334:CLK I *D sky130_fd_sc_hd__dfxtp_2
*I *1340:CLK I *D sky130_fd_sc_hd__dfxtp_2
*I *1341:CLK I *D sky130_fd_sc_hd__dfxtp_2
*I *1335:CLK I *D sky130_fd_sc_hd__dfxtp_2
*I *1353:X O *D sky130_fd_sc_hd__clkbuf_16
*CAP
1 *1336:CLK 0.000133087
2 *1301:CLK 2.34823e-05
3 *1332:CLK 4.24511e-05
4 *1345:CLK 0
5 *1333:CLK 0
6 *1334:CLK 0
7 *1340:CLK 0.000107535
8 *1341:CLK 0.000359831
9 *1335:CLK 0.000529891
10 *1353:X 0.000158935
11 *244:91 0.000575317
12 *244:85 0.000887427
13 *244:77 0.000737414
14 *244:71 0.000928259
15 *244:39 0.000682005
16 *244:28 0.000965885
17 *244:24 0.000902182
18 *244:16 0.00121539
19 *244:6 0.0010444
20 *1335:CLK *265:35 0
21 *1341:CLK *1274:A 4.95081e-05
22 *1341:CLK *1275:A3 5.3304e-05
23 *1341:CLK *1275:C1 0.000155937
24 *244:16 *385:53 0.000111852
25 *244:16 *386:6 3.16784e-05
26 *244:16 *386:12 2.81066e-05
27 *244:85 *1301:D 3.24476e-06
28 *244:85 *302:8 0
29 *244:91 *1104:B 0.00014196
30 *244:91 *248:29 8.93593e-05
31 *244:91 *266:12 4.79544e-05
32 *244:91 *266:18 0.000593361
33 *244:91 *361:8 0
34 *1110:A2 *244:91 7.80354e-05
35 *1259:C *244:24 5.50106e-05
36 *1260:B1 *1335:CLK 0
37 *1263:A2 *1335:CLK 0
38 *1274:B *1341:CLK 5.67058e-05
39 *1275:B1 *1341:CLK 4.66047e-05
40 *1306:D *244:91 0.000280866
41 *1333:D *244:16 0.00012114
42 *1333:D *244:24 0.000101764
43 *1334:D *244:24 8.6426e-05
44 *1399:A *244:77 0.000140259
45 *4:13 *1335:CLK 0.000180939
46 *4:13 *244:39 0.000219882
47 *15:10 *1335:CLK 2.50347e-05
48 *15:10 *244:39 6.21538e-05
49 *25:13 *1340:CLK 0.000225275
50 *25:13 *244:39 0.000180939
51 *49:10 *244:85 0
52 *54:8 *244:91 0.000152965
53 *83:10 *1335:CLK 4.21594e-06
54 *88:10 *1341:CLK 2.30292e-05
55 *100:12 *244:91 0
56 *102:8 *244:39 0
57 *102:25 *1341:CLK 6.1789e-05
58 *219:35 *1336:CLK 0
59 *219:35 *244:16 0.000111852
60 *219:35 *244:77 0
61 *223:10 *244:77 2.46933e-05
62 *229:8 *1335:CLK 0
63 *239:23 *244:91 0
64 *239:73 *1336:CLK 1.83667e-05
65 *239:73 *244:77 8.48476e-05
66 *239:89 *1336:CLK 0.000125802
*RES
1 *1353:X *244:6 24.5743 
2 *244:6 *244:16 39.3421 
3 *244:16 *244:24 12.5943 
4 *244:24 *244:28 18.48 
5 *244:28 *1335:CLK 49.0614 
6 *244:28 *244:39 5.77929 
7 *244:39 *1341:CLK 45.7679 
8 *244:39 *1340:CLK 40.9621 
9 *244:24 *1334:CLK 23 
10 *244:16 *1333:CLK 23 
11 *244:6 *244:71 19.4329 
12 *244:71 *244:77 22.9957 
13 *244:77 *244:85 19.3293 
14 *244:85 *244:91 31.4057 
15 *244:91 *1345:CLK 23 
16 *244:85 *1332:CLK 38.6214 
17 *244:77 *1301:CLK 23.4971 
18 *244:71 *1336:CLK 41.6664 
*END

*D_NET *245 0.0124521
*CONN
*I *1337:CLK I *D sky130_fd_sc_hd__dfxtp_2
*I *1302:CLK I *D sky130_fd_sc_hd__dfxtp_2
*I *1338:CLK I *D sky130_fd_sc_hd__dfxtp_2
*I *1339:CLK I *D sky130_fd_sc_hd__dfxtp_2
*I *1343:CLK I *D sky130_fd_sc_hd__dfxtp_2
*I *1342:CLK I *D sky130_fd_sc_hd__dfxtp_2
*I *1316:CLK I *D sky130_fd_sc_hd__dfxtp_2
*I *1297:CLK I *D sky130_fd_sc_hd__dfxtp_2
*I *1360:A I *D sky130_fd_sc_hd__clkbuf_4
*I *1354:X O *D sky130_fd_sc_hd__clkbuf_16
*CAP
1 *1337:CLK 0
2 *1302:CLK 9.51771e-05
3 *1338:CLK 0
4 *1339:CLK 2.52923e-05
5 *1343:CLK 0
6 *1342:CLK 0
7 *1316:CLK 0.000419525
8 *1297:CLK 0
9 *1360:A 0
10 *1354:X 5.145e-05
11 *245:92 0.000752405
12 *245:71 0.000300408
13 *245:61 0.00103026
14 *245:57 0.00129923
15 *245:55 0.00148286
16 *245:38 0.000753319
17 *245:31 0.000951351
18 *245:14 0.0012041
19 *245:8 0.00030499
20 *245:6 5.145e-05
21 *1316:CLK *1266:A 0.000143655
22 *1316:CLK *1270:A 1.69169e-05
23 *245:14 *1268:A 0.000187707
24 *245:14 *265:108 0.000137651
25 *245:14 *321:8 2.93747e-05
26 *245:31 *1079:A0 3.58358e-05
27 *245:31 *1267:A3 7.53384e-06
28 *245:31 *1267:C1 4.94073e-05
29 *245:31 *1297:D 5.65198e-05
30 *245:31 *252:10 5.50106e-05
31 *245:31 *268:31 0.000151305
32 *245:38 *1268:A 0.000139647
33 *245:55 *1268:A 0.000501049
34 *245:57 *392:8 1.39431e-05
35 *245:71 *336:10 0.000147567
36 *1266:B *1316:CLK 0.000390658
37 *1268:B *245:55 0.000423985
38 *1272:B *245:61 9.91798e-05
39 *1338:D *245:92 0.000271425
40 *1339:D *245:57 0.000145274
41 *1343:D *245:61 1.64354e-05
42 *3:22 *245:31 0.000108357
43 *16:10 *245:71 0.0001276
44 *18:9 *245:55 9.23705e-06
45 *23:13 *245:71 1.32314e-05
46 *102:88 *245:71 0
47 *219:67 *245:14 7.66819e-05
48 *219:67 *245:38 6.67764e-05
49 *219:67 *245:55 3.71611e-05
50 *231:8 *245:31 0.000195238
51 *234:10 *245:57 6.60479e-05
52 *234:10 *245:61 9.88521e-06
*RES
1 *1354:X *245:6 23.6214 
2 *245:6 *245:8 15 
3 *245:8 *245:14 20.6136 
4 *245:14 *1360:A 23 
5 *245:14 *245:31 45.66 
6 *245:31 *1297:CLK 23 
7 *245:8 *245:38 1.90571 
8 *245:38 *1316:CLK 45.3329 
9 *245:38 *245:55 22.1879 
10 *245:55 *245:57 9.19714 
11 *245:57 *245:61 11.4757 
12 *245:61 *245:71 36.7114 
13 *245:71 *1342:CLK 23 
14 *245:61 *1343:CLK 23 
15 *245:57 *1339:CLK 23.4971 
16 *245:55 *245:92 10.6471 
17 *245:92 *1338:CLK 23 
18 *245:92 *1302:CLK 24.5743 
19 *245:6 *1337:CLK 23 
*END

*D_NET *246 0.011257
*CONN
*I *1310:CLK I *D sky130_fd_sc_hd__dfxtp_2
*I *1361:A I *D sky130_fd_sc_hd__clkbuf_4
*I *1307:CLK I *D sky130_fd_sc_hd__dfxtp_2
*I *1308:CLK I *D sky130_fd_sc_hd__dfxtp_2
*I *1311:CLK I *D sky130_fd_sc_hd__dfxtp_2
*I *1347:CLK I *D sky130_fd_sc_hd__dfxtp_2
*I *1315:CLK I *D sky130_fd_sc_hd__dfxtp_2
*I *1296:CLK I *D sky130_fd_sc_hd__dfxtp_2
*I *1309:CLK I *D sky130_fd_sc_hd__dfxtp_2
*I *1355:X O *D sky130_fd_sc_hd__clkbuf_16
*CAP
1 *1310:CLK 0.000158806
2 *1361:A 0
3 *1307:CLK 0
4 *1308:CLK 0.00028947
5 *1311:CLK 0
6 *1347:CLK 0
7 *1315:CLK 5.04364e-05
8 *1296:CLK 3.52973e-05
9 *1309:CLK 0
10 *1355:X 0.000158806
11 *246:76 0.000664426
12 *246:69 0.000102731
13 *246:56 0.000490818
14 *246:50 0.00113729
15 *246:46 0.000662288
16 *246:38 0.00060499
17 *246:20 0.000271632
18 *246:12 0.000775919
19 *246:6 0.000836377
20 *1296:CLK *1191:A1 4.08664e-05
21 *1308:CLK *269:25 0.000394999
22 *1308:CLK *271:86 9.67842e-05
23 *1308:CLK *272:42 0
24 *1308:CLK *354:36 0
25 *246:12 *1190:B 3.3123e-05
26 *246:12 *1191:A1 0.00029458
27 *246:12 *271:107 0.00012238
28 *246:12 *271:118 0.000103707
29 *246:12 *353:8 2.93747e-05
30 *246:12 *353:21 0.000111045
31 *246:20 *1068:A 2.24973e-05
32 *246:20 *1157:C1 4.92689e-05
33 *246:20 *1186:A 0.000367698
34 *246:20 *355:8 2.64616e-05
35 *246:38 *353:21 5.56203e-05
36 *246:38 *354:20 0.000141052
37 *246:46 *353:56 3.31683e-05
38 *246:46 *354:20 5.50106e-05
39 *246:56 *266:98 0.000111709
40 *246:56 *266:102 5.50106e-05
41 *246:56 *266:141 0
42 *246:56 *272:27 0
43 *246:56 *337:10 8.62876e-05
44 *246:69 *266:81 0.000194309
45 *246:69 *365:25 0
46 *246:76 *266:141 0
47 *246:76 *354:36 0
48 *1099:A3 *246:56 5.3304e-05
49 *1177:A *246:50 0.000226306
50 *1182:B1 *246:46 0
51 *1185:B *246:20 0
52 *1203:B1 *246:56 5.50049e-05
53 *1315:D *1315:CLK 5.67058e-05
54 *55:10 *246:46 0.000167452
55 *58:10 *246:12 5.50106e-05
56 *93:10 *246:20 0.000138708
57 *119:50 *246:20 0
58 *159:6 *1315:CLK 7.88828e-05
59 *159:6 *246:56 0.00016803
60 *159:10 *246:69 0
61 *171:10 *246:50 5.41385e-05
62 *173:12 *246:50 0.000140259
63 *173:12 *246:56 9.48381e-06
64 *173:12 *246:76 8.33469e-05
65 *173:22 *246:56 0.00017753
66 *173:36 *246:76 5.19151e-05
67 *173:48 *1308:CLK 0.000182854
68 *173:48 *246:76 0.000222113
69 *177:10 *246:20 2.93747e-05
70 *179:39 *246:38 0.00024017
71 *185:12 *246:50 0.000167041
72 *185:22 *246:56 5.50049e-05
73 *185:38 *246:12 0
74 *185:38 *246:38 0
75 *185:38 *246:46 0
76 *239:153 *246:46 0.00011218
77 *239:179 *246:46 6.7911e-05
*RES
1 *1355:X *246:6 38 
2 *246:6 *246:12 26.4343 
3 *246:12 *246:20 36.4007 
4 *246:20 *1309:CLK 23 
5 *246:12 *1296:CLK 23.6214 
6 *246:6 *246:38 22.8921 
7 *246:38 *246:46 35.6964 
8 *246:46 *246:50 24.1971 
9 *246:50 *246:56 23.2236 
10 *246:56 *1315:CLK 24.5743 
11 *246:56 *246:69 32.61 
12 *246:69 *1347:CLK 23 
13 *246:50 *246:76 8.24429 
14 *246:76 *1311:CLK 38 
15 *246:76 *1308:CLK 45.54 
16 *246:46 *1307:CLK 23 
17 *246:38 *1361:A 23 
18 *1355:X *1310:CLK 48.5271 
*END

*D_NET *247 0.0105844
*CONN
*I *1314:CLK I *D sky130_fd_sc_hd__dfxtp_2
*I *1300:CLK I *D sky130_fd_sc_hd__dfxtp_2
*I *1313:CLK I *D sky130_fd_sc_hd__dfxtp_2
*I *1299:CLK I *D sky130_fd_sc_hd__dfxtp_2
*I *1303:CLK I *D sky130_fd_sc_hd__dfxtp_2
*I *1298:CLK I *D sky130_fd_sc_hd__dfxtp_2
*I *1317:CLK I *D sky130_fd_sc_hd__dfxtp_2
*I *1312:CLK I *D sky130_fd_sc_hd__dfxtp_2
*I *1362:A I *D sky130_fd_sc_hd__clkbuf_4
*I *1356:X O *D sky130_fd_sc_hd__clkbuf_16
*CAP
1 *1314:CLK 0
2 *1300:CLK 0
3 *1313:CLK 0
4 *1299:CLK 0
5 *1303:CLK 0
6 *1298:CLK 5.13783e-05
7 *1317:CLK 0
8 *1312:CLK 0
9 *1362:A 0
10 *1356:X 0.000912427
11 *247:108 0.00028849
12 *247:98 0.000659065
13 *247:79 0.000342694
14 *247:71 0.000381808
15 *247:64 0.000900302
16 *247:42 9.97598e-05
17 *247:33 0.000873204
18 *247:21 0.000921586
19 *247:19 0.00118365
20 *247:10 0.000864316
21 *247:19 *267:31 0
22 *247:19 *287:23 0
23 *247:33 *1298:D 9.07294e-05
24 *247:33 *253:10 0.000395889
25 *247:33 *362:10 0
26 *247:64 *1303:D 1.64354e-05
27 *247:64 *253:10 0
28 *247:64 *258:8 0.000400198
29 *247:64 *290:10 0.000167443
30 *247:79 *1170:A 0
31 *247:79 *1299:D 4.04206e-05
32 *247:79 *291:12 0.000183733
33 *247:98 *1199:A 9.41704e-05
34 *247:108 *1201:A1 0.000141154
35 *247:108 *291:12 0.000169683
36 *1168:B *247:33 0.000192012
37 *1194:A1 *247:10 0
38 *1199:C *247:98 7.88926e-05
39 *1204:A1 *247:33 1.14452e-05
40 *1356:A *247:10 6.61902e-05
41 *61:10 *247:79 0.000223043
42 *62:10 *247:108 5.50049e-05
43 *65:8 *247:19 0
44 *158:39 *247:79 5.50106e-05
45 *158:53 *247:19 0
46 *158:53 *247:64 0.000227208
47 *158:63 *247:19 0
48 *159:38 *247:33 2.3529e-05
49 *172:17 *247:10 0
50 *179:89 *247:108 0.000171906
51 *184:10 *247:79 6.08617e-05
52 *186:10 *247:98 9.67842e-05
53 *239:179 *247:10 0.000143997
*RES
1 *1356:X *247:10 46.2443 
2 *247:10 *1362:A 38 
3 *247:10 *247:19 5.42714 
4 *247:19 *247:21 15 
5 *247:21 *247:33 45.08 
6 *247:33 *1312:CLK 23 
7 *247:21 *247:42 1.11857 
8 *247:42 *1317:CLK 23 
9 *247:42 *1298:CLK 24.1186 
10 *247:19 *247:64 32.0479 
11 *247:64 *1303:CLK 23 
12 *247:64 *247:71 0.621429 
13 *247:71 *247:79 37.8714 
14 *247:79 *1299:CLK 23 
15 *247:71 *1313:CLK 23 
16 *1356:X *247:98 29.235 
17 *247:98 *247:108 36.7114 
18 *247:108 *1300:CLK 23 
19 *247:98 *1314:CLK 23 
*END

*D_NET *248 0.0125961
*CONN
*I *1372:A I *D sky130_fd_sc_hd__clkdlybuf4s25_1
*I *1109:B I *D sky130_fd_sc_hd__or2_2
*I *1111:C1 I *D sky130_fd_sc_hd__a221o_2
*I *1173:A I *D sky130_fd_sc_hd__or2_2
*I *1254:C1 I *D sky130_fd_sc_hd__a311o_2
*I *1433:X O *D sky130_fd_sc_hd__clkdlybuf4s25_1
*CAP
1 *1372:A 0
2 *1109:B 0
3 *1111:C1 0.00090147
4 *1173:A 0
5 *1254:C1 0
6 *1433:X 0.000530645
7 *248:45 0.000374319
8 *248:33 0.00173374
9 *248:29 0.000675058
10 *248:18 0.00164141
11 *248:10 0.00175284
12 *248:8 0.000859178
13 *1111:C1 *367:14 8.22421e-06
14 *1111:C1 *369:27 0.000634993
15 *248:10 *1259:A 3.56433e-05
16 *248:10 *261:10 0
17 *248:10 *387:8 0.000129504
18 *248:10 *387:10 0.000227497
19 *248:18 *265:25 0.00030894
20 *248:18 *273:8 0
21 *248:18 *384:27 0.000121779
22 *248:18 *384:29 0.000552151
23 *248:18 *384:33 0.00014196
24 *248:18 *387:10 8.62876e-05
25 *248:29 *266:18 6.07611e-06
26 *248:33 *266:18 0.000296476
27 *248:33 *273:105 0
28 *248:33 *300:18 0.000418491
29 *248:45 *1107:A 5.09072e-05
30 *1107:B *248:45 0
31 *15:10 *248:8 5.50106e-05
32 *53:10 *248:45 5.3304e-05
33 *99:8 *248:33 0.000384805
34 *100:12 *248:29 0.000125904
35 *124:28 *1111:C1 9.85586e-06
36 *219:56 *248:18 1.27193e-05
37 *220:71 *248:18 0.000202911
38 *225:6 *248:18 4.73208e-05
39 *225:8 *248:18 9.5084e-05
40 *225:14 *248:18 0
41 *226:10 *248:10 0
42 *241:18 *248:45 3.22879e-05
43 *244:91 *248:29 8.93593e-05
*RES
1 *1433:X *248:8 44.815 
2 *248:8 *248:10 7.54 
3 *248:10 *248:18 37.0814 
4 *248:18 *1254:C1 23 
5 *248:18 *248:29 20.2407 
6 *248:29 *248:33 21.3504 
7 *248:33 *248:45 27.097 
8 *248:45 *1173:A 23 
9 *248:33 *1111:C1 48.6955 
10 *248:29 *1109:B 38 
11 *248:10 *1372:A 38 
*END

*D_NET *249 0.00279431
*CONN
*I *1281:A1 I *D sky130_fd_sc_hd__o311a_2
*I *1434:X O *D sky130_fd_sc_hd__clkdlybuf4s25_1
*CAP
1 *1281:A1 0.000299074
2 *1434:X 0.000374857
3 *249:10 0.00067393
4 *1281:A1 *317:10 0.000199369
5 *249:10 *1271:A3 0
6 *249:10 *1412:A 0
7 *249:10 *303:20 0.000102389
8 *249:10 *317:10 0
9 *1281:A2 *1281:A1 4.37033e-05
10 *20:11 *1281:A1 0.000884166
11 *24:13 *249:10 0
12 *87:10 *249:10 0.000162803
13 *102:100 *249:10 5.40241e-05
14 *234:10 *249:10 0
*RES
1 *1434:X *249:10 45.2293 
2 *249:10 *1281:A1 48.1707 
*END

*D_NET *250 0.00311406
*CONN
*I *1077:A I *D sky130_fd_sc_hd__inv_2
*I *1260:A1 I *D sky130_fd_sc_hd__o211a_2
*I *1435:X O *D sky130_fd_sc_hd__clkdlybuf4s25_1
*CAP
1 *1077:A 0
2 *1260:A1 0.000236585
3 *1435:X 0.000371338
4 *250:10 0.000607923
5 *1260:A1 *265:25 7.80291e-06
6 *1260:A1 *265:35 0.000249909
7 *1260:A1 *265:41 0
8 *250:10 *265:41 0.000334466
9 *250:10 *265:54 0.000391663
10 *250:10 *314:10 0.000231126
11 *1260:C1 *1260:A1 1.28818e-05
12 *4:13 *1260:A1 0
13 *4:13 *250:10 0
14 *82:8 *1260:A1 0.000224072
15 *82:8 *250:10 6.07611e-06
16 *102:8 *250:10 0.000379413
17 *228:10 *1260:A1 6.08032e-05
*RES
1 *1435:X *250:10 48.9786 
2 *250:10 *1260:A1 44.6959 
3 *250:10 *1077:A 38 
*END

*D_NET *251 0.00136998
*CONN
*I *1444:A I *D sky130_fd_sc_hd__clkdlybuf4s25_1
*I *1393:A I *D sky130_fd_sc_hd__dlygate4sd3_1
*I *1296:Q O *D sky130_fd_sc_hd__dfxtp_2
*CAP
1 *1444:A 0.000306752
2 *1393:A 0.000145721
3 *1296:Q 0.000125693
4 *251:8 0.000578166
5 *6:10 *1444:A 0
6 *158:27 *1393:A 9.70962e-05
7 *158:27 *1444:A 0.000116554
*RES
1 *1296:Q *251:8 39.5743 
2 *251:8 *1393:A 41.6664 
3 *251:8 *1444:A 44.2971 
*END

*D_NET *252 0.00467383
*CONN
*I *1445:A I *D sky130_fd_sc_hd__clkdlybuf4s25_1
*I *1158:A I *D sky130_fd_sc_hd__or2_2
*I *1297:Q O *D sky130_fd_sc_hd__dfxtp_2
*CAP
1 *1445:A 0
2 *1158:A 0
3 *1297:Q 0.000110627
4 *252:27 0.000512796
5 *252:18 0.000876147
6 *252:10 0.00149957
7 *252:10 *1267:C1 3.22879e-05
8 *252:10 *268:46 6.4393e-05
9 *252:18 *1415:A 5.50106e-05
10 *252:18 *279:14 2.62411e-05
11 *252:18 *320:10 2.45549e-06
12 *252:27 *268:46 0.000264477
13 *252:27 *292:22 0
14 *252:27 *320:10 0.000375989
15 *252:27 *322:8 0.000508926
16 *1159:B1 *252:18 0.000138444
17 *1379:A *252:18 5.67058e-05
18 *3:22 *252:27 0
19 *50:8 *252:27 0
20 *86:8 *252:27 5.61311e-05
21 *158:67 *252:18 3.86227e-05
22 *231:8 *252:10 0
23 *231:8 *252:27 0
24 *245:31 *252:10 5.50106e-05
*RES
1 *1297:Q *252:10 40.5271 
2 *252:10 *252:18 29.4793 
3 *252:18 *1158:A 23 
4 *252:10 *252:27 29.5829 
5 *252:27 *1445:A 23 
*END

*D_NET *253 0.00324531
*CONN
*I *1446:A I *D sky130_fd_sc_hd__clkdlybuf4s25_1
*I *1160:A I *D sky130_fd_sc_hd__or2_2
*I *1298:Q O *D sky130_fd_sc_hd__dfxtp_2
*CAP
1 *1446:A 0.000155297
2 *1160:A 9.39888e-05
3 *1298:Q 0.00046715
4 *253:10 0.000716435
5 *1446:A *269:144 0.000402806
6 *1446:A *358:10 0.000156388
7 *253:10 *290:10 0
8 *253:10 *358:10 0.000324742
9 *1388:A *1160:A 2.32004e-05
10 *158:53 *1160:A 5.3304e-05
11 *158:63 *1160:A 5.3304e-05
12 *159:76 *1446:A 0.000402806
13 *247:33 *253:10 0.000395889
14 *247:64 *253:10 0
*RES
1 *1298:Q *253:10 46.8036 
2 *253:10 *1160:A 39.5743 
3 *253:10 *1446:A 44.6907 
*END

*D_NET *254 0.00245872
*CONN
*I *1162:A I *D sky130_fd_sc_hd__or2_2
*I *1447:A I *D sky130_fd_sc_hd__clkdlybuf4s25_1
*I *1299:Q O *D sky130_fd_sc_hd__dfxtp_2
*CAP
1 *1162:A 0
2 *1447:A 0
3 *1299:Q 0.000246755
4 *254:25 9.55436e-05
5 *254:14 0.000442457
6 *254:6 0.000784755
7 *254:14 *1299:D 0.000126488
8 *254:14 *293:10 0
9 *254:25 *269:81 0.000308661
10 *1162:B *254:25 0.000225275
11 *47:8 *254:14 3.884e-05
12 *158:31 *254:25 6.25829e-05
13 *158:39 *254:14 0.000127359
14 *159:91 *254:25 0
*RES
1 *1299:Q *254:6 26.0036 
2 *254:6 *254:14 36.3386 
3 *254:14 *1447:A 23 
4 *254:6 *254:25 34.0186 
5 *254:25 *1162:A 23 
*END

*D_NET *255 0.00194721
*CONN
*I *1394:A I *D sky130_fd_sc_hd__dlygate4sd3_1
*I *1448:A I *D sky130_fd_sc_hd__clkdlybuf4s25_1
*I *1300:Q O *D sky130_fd_sc_hd__dfxtp_2
*CAP
1 *1394:A 0
2 *1448:A 0.00037862
3 *1300:Q 0.000253874
4 *255:10 0.00037862
5 *255:8 0.000253874
6 rx_data[4] *255:8 0.000153144
7 *10:8 *1448:A 0.000346246
8 *47:14 *1448:A 0.000182832
9 *158:27 *255:8 0
10 *158:31 *255:8 0
*RES
1 *1300:Q *255:8 43.075 
2 *255:8 *255:10 15 
3 *255:10 *1448:A 31.265 
4 *255:10 *1394:A 23 
*END

*D_NET *256 0.00532876
*CONN
*I *1449:A I *D sky130_fd_sc_hd__clkdlybuf4s25_1
*I *1166:A I *D sky130_fd_sc_hd__or2_2
*I *1301:Q O *D sky130_fd_sc_hd__dfxtp_2
*CAP
1 *1449:A 0
2 *1166:A 0.000294092
3 *1301:Q 0.000451971
4 *256:29 0.0010618
5 *256:10 0.00180786
6 *1166:A *279:29 2.93747e-05
7 *256:10 *266:141 2.29192e-05
8 *256:10 *268:23 3.61123e-05
9 *256:10 *272:12 0.000211113
10 *256:10 *272:23 5.41385e-05
11 *256:29 *1168:A 0
12 *256:29 *1450:A 0
13 *256:29 *266:141 0.000134443
14 *256:29 *267:25 6.48049e-05
15 *256:29 *268:23 3.95159e-06
16 *256:29 *269:129 0
17 *256:29 *269:144 5.86165e-05
18 *256:29 *279:29 0.000383494
19 *1166:B *1166:A 0.000135037
20 *1166:B *256:29 0.000127571
21 *1168:B *256:29 9.29429e-05
22 *59:8 *256:29 0.000116314
23 *60:8 *256:29 0.000194309
24 *159:76 *256:29 0
25 *165:10 *1166:A 4.34876e-05
26 *179:60 *256:29 4.40479e-06
*RES
1 *1301:Q *256:10 44.5871 
2 *256:10 *1166:A 41.9771 
3 *256:10 *256:29 39.1529 
4 *256:29 *1449:A 23 
*END

*D_NET *257 0.0011181
*CONN
*I *1450:A I *D sky130_fd_sc_hd__clkdlybuf4s25_1
*I *1168:A I *D sky130_fd_sc_hd__or2_2
*I *1302:Q O *D sky130_fd_sc_hd__dfxtp_2
*CAP
1 *1450:A 0.000174943
2 *1168:A 0.000294572
3 *1302:Q 0
4 *257:6 0.000469515
5 *1168:A *285:8 0
6 *1168:A *362:10 0
7 *1450:A *285:8 0
8 *1168:B *1168:A 0.00010018
9 *11:8 *1450:A 7.88926e-05
10 *256:29 *1168:A 0
11 *256:29 *1450:A 0
*RES
1 *1302:Q *257:6 38 
2 *257:6 *1168:A 44.0693 
3 *257:6 *1450:A 41.48 
*END

*D_NET *258 0.00258669
*CONN
*I *1451:A I *D sky130_fd_sc_hd__clkdlybuf4s25_1
*I *1170:A I *D sky130_fd_sc_hd__or2_2
*I *1303:Q O *D sky130_fd_sc_hd__dfxtp_2
*CAP
1 *1451:A 0.000279794
2 *1170:A 0.000172486
3 *1303:Q 0.000269122
4 *258:8 0.000721403
5 *1170:A *287:23 0
6 *1170:A *288:10 1.86869e-05
7 *1170:A *363:10 0.000108662
8 *1451:A *288:10 5.47994e-05
9 *1451:A *363:10 6.57448e-05
10 *1196:A1 *1170:A 0
11 *51:6 *1451:A 0.000446281
12 *61:10 *1170:A 0
13 *159:89 *1451:A 4.95081e-05
14 *247:64 *258:8 0.000400198
15 *247:79 *1170:A 0
*RES
1 *1303:Q *258:8 42.4329 
2 *258:8 *1170:A 42.0186 
3 *258:8 *1451:A 45.7679 
*END

*D_NET *259 0.000835769
*CONN
*I *1172:B I *D sky130_fd_sc_hd__or2_2
*I *1436:X O *D sky130_fd_sc_hd__clkdlybuf4s25_1
*CAP
1 *1172:B 0
2 *1436:X 0.000370787
3 *259:10 0.000370787
4 *259:10 *273:14 0
5 *259:10 *273:35 3.20914e-05
6 *1304:CLK *259:10 5.0135e-05
7 *1326:CLK *259:10 1.19692e-05
*RES
1 *1436:X *259:10 44.2971 
2 *259:10 *1172:B 38 
*END

*D_NET *260 0.000986331
*CONN
*I *1452:A I *D sky130_fd_sc_hd__clkdlybuf4s25_1
*I *1295:Q O *D sky130_fd_sc_hd__dfxtp_2
*CAP
1 *1452:A 0.000170685
2 *1295:Q 0.000202104
3 *260:8 0.000372789
4 *260:8 *344:70 0
5 *14:10 *260:8 0.000240753
*RES
1 *1295:Q *260:8 42.7229 
2 *260:8 *1452:A 41.0036 
*END

*D_NET *261 0.00158685
*CONN
*I *1453:A I *D sky130_fd_sc_hd__clkdlybuf4s25_1
*I *1083:X O *D sky130_fd_sc_hd__o21a_2
*CAP
1 *1453:A 0
2 *1083:X 0.000776044
3 *261:10 0.000776044
4 *261:10 *1259:A 0
5 *261:10 *1262:A1 5.37348e-06
6 *261:10 *265:41 0
7 *224:10 *261:10 2.93845e-05
8 *248:10 *261:10 0
*RES
1 *1083:X *261:10 48.585 
2 *261:10 *1453:A 38 
*END

*D_NET *262 0.0108433
*CONN
*I *1271:A3 I *D sky130_fd_sc_hd__o311a_2
*I *1273:A3 I *D sky130_fd_sc_hd__o311a_2
*I *1365:A I *D sky130_fd_sc_hd__clkdlybuf4s25_1
*I *1084:X O *D sky130_fd_sc_hd__or2_2
*CAP
1 *1271:A3 0.000683685
2 *1273:A3 1.5769e-05
3 *1365:A 0
4 *1084:X 0.00028328
5 *262:33 0.00440817
6 *262:10 0.003992
7 *1271:A3 *1269:A3 9.41704e-05
8 *262:10 *387:18 2.18409e-05
9 *1213:B *262:33 1.12298e-05
10 *1265:A2 *262:10 0.000141954
11 *1271:A2 *1271:A3 0.000127415
12 *3:22 *262:33 3.20101e-05
13 *87:10 *1271:A3 2.76611e-06
14 *102:107 *1271:A3 0.000436068
15 *103:10 *262:10 0.00029036
16 *103:10 *262:33 2.33476e-05
17 *195:39 *262:33 3.4377e-06
18 *196:51 *262:10 0.000194327
19 *196:51 *262:33 1.38978e-05
20 *234:10 *1271:A3 4.49084e-05
21 *234:10 *1273:A3 2.26406e-05
22 *249:10 *1271:A3 0
*RES
1 *1084:X *262:10 44.5664 
2 *262:10 *1365:A 38 
3 *262:10 *262:33 39.1904 
4 *262:33 *1273:A3 38.3211 
5 *262:33 *1271:A3 47.8911 
*END

*D_NET *263 0.0145913
*CONN
*I *1238:B I *D sky130_fd_sc_hd__and3b_2
*I *1246:A I *D sky130_fd_sc_hd__and3_2
*I *1217:B1_N I *D sky130_fd_sc_hd__a21boi_2
*I *1232:B I *D sky130_fd_sc_hd__and3b_2
*I *1220:A I *D sky130_fd_sc_hd__and3_2
*I *1215:B I *D sky130_fd_sc_hd__and2b_2
*I *1223:C I *D sky130_fd_sc_hd__and3b_2
*I *1229:C I *D sky130_fd_sc_hd__and3b_2
*I *1226:A I *D sky130_fd_sc_hd__and3_2
*I *1235:A I *D sky130_fd_sc_hd__and3_2
*I *1363:X O *D sky130_fd_sc_hd__clkdlybuf4s25_1
*CAP
1 *1238:B 0.000340746
2 *1246:A 0.000613947
3 *1217:B1_N 0
4 *1232:B 0
5 *1220:A 6.36673e-05
6 *1215:B 0
7 *1223:C 0
8 *1229:C 0
9 *1226:A 0.00034958
10 *1235:A 2.14194e-05
11 *1363:X 0.00120629
12 *263:113 0.00156987
13 *263:97 0.000718482
14 *263:74 0.000162105
15 *263:68 0.000535938
16 *263:61 0.000800666
17 *263:39 0.000469484
18 *263:33 0.00103783
19 *263:29 0.000737148
20 *263:23 0.00150556
21 *263:12 0.000746417
22 *263:8 0.000838746
23 *1226:A *1225:A 0.00010655
24 *1226:A *1228:A1 9.65946e-05
25 *263:8 *338:10 0.000139882
26 *263:23 *1234:A 3.34129e-05
27 *263:33 *1421:A 0
28 *263:33 *378:10 0
29 *263:39 *1228:A1 3.17963e-05
30 *263:39 *378:10 0
31 *263:61 *1228:A1 0.000157657
32 *263:61 *1228:B1 0.000274229
33 *263:74 *335:10 0
34 *263:97 *380:8 0.000367166
35 *263:97 *381:10 6.49363e-05
36 *263:113 *338:10 2.46304e-05
37 *263:113 *382:10 0
38 *1226:C *1226:A 3.81946e-05
39 *1229:A_N *263:33 0
40 *1229:A_N *263:61 0.000141954
41 *1229:B *263:61 7.1349e-05
42 *1230:B *263:33 0
43 *1232:C *263:29 2.97769e-05
44 *1235:C *1235:A 5.90675e-06
45 *1235:C *263:12 5.70419e-05
46 *1235:C *263:23 3.22879e-05
47 *1238:A_N *1238:B 1.05235e-05
48 *1243:A2 *1246:A 0.000191255
49 *1243:B1_N *1246:A 8.1796e-05
50 *1324:D *263:97 1.64354e-05
51 *1363:A *263:113 5.36457e-05
52 *69:8 *263:74 0
53 *71:10 *263:33 6.03634e-05
54 *71:10 *263:61 0.00014196
55 *72:10 *263:29 6.6869e-05
56 *72:10 *263:97 0.000150952
57 *73:8 *263:8 4.61596e-05
58 *197:8 *1238:B 3.74442e-05
59 *197:8 *263:113 5.0135e-05
60 *200:14 *263:74 0
61 *201:14 *263:61 0.000145358
62 *201:28 *263:39 0
63 *201:45 *263:39 0
64 *201:67 *263:29 0
65 *201:67 *263:33 0
66 *208:6 *263:23 3.45855e-05
67 *208:12 *263:23 8.7283e-06
68 *208:45 *263:113 5.41385e-05
69 *208:54 *263:23 4.96717e-05
70 *214:10 *1238:B 0
71 *214:10 *263:113 0
72 *240:47 *263:29 0
73 *240:47 *263:33 0
74 *240:47 *263:97 0
75 *240:51 *263:33 0
*RES
1 *1363:X *263:8 49.4136 
2 *263:8 *263:12 18.48 
3 *263:12 *1235:A 23.4971 
4 *263:12 *263:23 21.815 
5 *263:23 *263:29 19.06 
6 *263:29 *263:33 22.54 
7 *263:33 *263:39 16.8695 
8 *263:39 *1226:A 28.8363 
9 *263:39 *1229:C 23 
10 *263:33 *263:61 27.6202 
11 *263:61 *1223:C 23 
12 *263:61 *263:68 5.33911 
13 *263:68 *263:74 32.9621 
14 *263:74 *1215:B 23 
15 *263:68 *1220:A 24.0979 
16 *263:29 *1232:B 23 
17 *263:23 *263:97 29.5207 
18 *263:97 *1217:B1_N 23 
19 *1363:X *263:113 47.28 
20 *263:113 *1246:A 49.1029 
21 *263:113 *1238:B 43.0336 
*END

*D_NET *264 0.015604
*CONN
*I *1152:B1 I *D sky130_fd_sc_hd__o311a_2
*I *1125:A I *D sky130_fd_sc_hd__inv_2
*I *1130:B1 I *D sky130_fd_sc_hd__o21ai_2
*I *1140:B1 I *D sky130_fd_sc_hd__o21ai_2
*I *1142:B1 I *D sky130_fd_sc_hd__o21ai_2
*I *1139:B I *D sky130_fd_sc_hd__and3b_2
*I *1136:B1 I *D sky130_fd_sc_hd__o21ai_2
*I *1134:B1 I *D sky130_fd_sc_hd__o21ai_2
*I *1133:B I *D sky130_fd_sc_hd__and3b_2
*I *1129:B I *D sky130_fd_sc_hd__and3_2
*I *1364:X O *D sky130_fd_sc_hd__clkdlybuf4s25_1
*CAP
1 *1152:B1 0
2 *1125:A 0
3 *1130:B1 0
4 *1140:B1 0
5 *1142:B1 6.71007e-05
6 *1139:B 0.000500005
7 *1136:B1 0.000456452
8 *1134:B1 0
9 *1133:B 0.000388876
10 *1129:B 5.19777e-05
11 *1364:X 0.000263807
12 *264:126 0.000636056
13 *264:98 0.000567106
14 *264:96 0.000821045
15 *264:92 0.00070949
16 *264:69 0.00140758
17 *264:58 0.000956518
18 *264:41 0.00105514
19 *264:39 0.000548245
20 *264:33 0.000659992
21 *264:22 0.000626094
22 *264:12 0.000326002
23 *264:10 0.000263807
24 *1129:B *1122:A 2.02872e-05
25 *1136:B1 *1119:B 0
26 *1136:B1 *350:37 0
27 *1139:B *349:10 4.23714e-05
28 *1139:B *350:12 0
29 *1142:B1 *304:10 1.02387e-05
30 *264:10 *368:27 0.000354778
31 *264:10 *370:26 0.000180224
32 *264:22 *1122:A 0.000185428
33 *264:22 *1152:A1 0.000180812
34 *264:22 *368:27 5.67058e-05
35 *264:33 *342:19 0.000151026
36 *264:39 *1126:A1 8.87259e-05
37 *264:39 *341:8 0
38 *264:39 *342:19 3.67392e-05
39 *264:39 *342:21 0.000193873
40 *264:58 *286:6 9.84851e-05
41 *264:58 *352:25 2.98648e-05
42 *264:69 *1089:C 0
43 *264:69 *1384:A 9.84851e-05
44 *264:69 *286:6 8.6949e-05
45 *264:69 *350:37 0
46 *264:69 *351:8 0
47 *264:92 *349:26 5.68453e-05
48 *264:126 *1141:A1 1.39317e-05
49 *1119:D *1139:B 0
50 *1120:C *264:58 2.02872e-05
51 *1122:B *264:33 0
52 *1130:A2 *1133:B 0
53 *1130:A2 *264:39 0
54 *1130:A2 *264:41 0
55 *1133:A_N *1133:B 0
56 *1134:A2 *264:58 0.000258245
57 *1137:B *1136:B1 2.18506e-05
58 *1138:A2 *264:92 5.41385e-05
59 *1142:A2 *264:96 3.17634e-05
60 *1143:A *264:126 1.00286e-05
61 *1285:CLK *1133:B 0
62 *31:10 *264:22 9.84794e-05
63 *31:10 *264:33 5.70958e-05
64 *32:8 *264:39 2.99277e-05
65 *33:8 *1133:B 8.51329e-05
66 *35:8 *1136:B1 9.07847e-05
67 *37:8 *264:126 5.45887e-05
68 *42:10 *264:10 0.000300098
69 *42:10 *264:22 2.69037e-05
70 *96:10 *264:10 6.07611e-06
71 *117:20 *264:10 1.52259e-05
72 *124:18 *264:22 5.67058e-05
73 *124:28 *264:22 0.000472309
74 *133:14 *1142:B1 0
75 *133:14 *264:92 8.4047e-05
76 *133:16 *264:92 8.43466e-05
77 *133:24 *264:92 5.3304e-05
78 *134:8 *264:96 9.84794e-05
79 *134:8 *264:126 0.000402806
80 *134:12 *264:126 0.000136498
81 *135:8 *1139:B 0
82 *135:8 *264:92 5.21127e-05
83 *136:10 *1136:B1 0
84 *136:10 *264:92 4.79612e-05
85 *137:10 *1136:B1 5.67058e-05
86 *137:20 *1136:B1 0.00015982
87 *137:48 *264:58 9.84851e-05
88 *138:8 *264:58 7.59794e-05
89 *143:8 *264:39 0.000167522
90 *145:8 *264:33 0.000114074
91 *146:10 *264:39 0
92 *150:10 *1139:B 0
93 *151:8 *264:126 8.51291e-05
94 *152:10 *1142:B1 6.07611e-06
95 *242:61 *1133:B 0
96 *242:61 *264:39 0
97 *242:61 *264:41 0
*RES
1 *1364:X *264:10 44.7736 
2 *264:10 *264:12 15 
3 *264:12 *264:22 10.8336 
4 *264:22 *1129:B 23.6214 
5 *264:22 *264:33 19.7229 
6 *264:33 *264:39 10.0671 
7 *264:39 *264:41 2.61 
8 *264:41 *1133:B 45.54 
9 *264:41 *264:58 26.2686 
10 *264:58 *1134:B1 23 
11 *264:58 *264:69 22.9957 
12 *264:69 *1136:B1 46.7 
13 *264:69 *264:92 39.7979 
14 *264:92 *264:96 17.5271 
15 *264:96 *264:98 15 
16 *264:98 *1139:B 45.9336 
17 *264:98 *1142:B1 39.2014 
18 *264:96 *264:126 42.6979 
19 *264:126 *1140:B1 23 
20 *264:39 *1130:B1 38 
21 *264:33 *1125:A 38 
22 *264:12 *1152:B1 23 
*END

*D_NET *265 0.0173663
*CONN
*I *1260:A2 I *D sky130_fd_sc_hd__o211a_2
*I *1281:A3 I *D sky130_fd_sc_hd__o311a_2
*I *1269:A3 I *D sky130_fd_sc_hd__o311a_2
*I *1267:A3 I *D sky130_fd_sc_hd__o311a_2
*I *1277:A3 I *D sky130_fd_sc_hd__o311a_2
*I *1249:B I *D sky130_fd_sc_hd__nor2_2
*I *1454:A I *D sky130_fd_sc_hd__clkdlybuf4s25_1
*I *1279:A3 I *D sky130_fd_sc_hd__o311a_2
*I *1275:A3 I *D sky130_fd_sc_hd__o311a_2
*I *1213:A I *D sky130_fd_sc_hd__nand2_2
*I *1365:X O *D sky130_fd_sc_hd__clkdlybuf4s25_1
*CAP
1 *1260:A2 0
2 *1281:A3 0.000320844
3 *1269:A3 0.000349163
4 *1267:A3 0.000250091
5 *1277:A3 3.22722e-05
6 *1249:B 0
7 *1454:A 5.06194e-05
8 *1279:A3 2.6743e-05
9 *1275:A3 4.09526e-05
10 *1213:A 0.000158861
11 *1365:X 0.000172003
12 *265:108 0.00164283
13 *265:93 0.00120911
14 *265:82 0.000216987
15 *265:69 0.000236278
16 *265:65 0.000605134
17 *265:54 0.000671438
18 *265:41 0.000904765
19 *265:35 0.000652947
20 *265:25 0.000885883
21 *265:8 0.000965272
22 *1267:A3 *1079:A0 9.45591e-05
23 *1267:A3 *1268:A 4.18957e-05
24 *1267:A3 *270:14 0.000274034
25 *1269:A3 *1268:A 0.000254407
26 *1269:A3 *270:14 0.000288624
27 *1281:A3 *303:10 0
28 *1281:A3 *395:8 5.21127e-05
29 *1454:A *325:10 9.28088e-05
30 *265:54 *314:10 7.75329e-06
31 *265:69 *272:57 7.76364e-06
32 *265:93 *272:57 2.11066e-05
33 *265:108 *1278:A 5.50106e-05
34 *265:108 *268:79 0.000810976
35 *1083:B1 *265:25 0.000219873
36 *1213:B *1213:A 4.21594e-06
37 *1260:A1 *265:25 7.80291e-06
38 *1260:A1 *265:35 0.000249909
39 *1260:A1 *265:41 0
40 *1260:B1 *265:35 1.14452e-05
41 *1260:C1 *265:25 0.000132661
42 *1262:B1_N *265:35 4.67488e-05
43 *1267:A2 *1267:A3 0.000265477
44 *1271:A2 *1269:A3 9.41704e-05
45 *1271:A3 *1269:A3 9.41704e-05
46 *1279:A2 *1279:A3 9.84794e-05
47 *1279:A2 *265:54 0.000182065
48 *1279:A2 *265:65 8.43466e-05
49 *1279:A2 *265:69 0
50 *1279:B1 *1279:A3 5.50049e-05
51 *1279:B1 *265:65 0.00044458
52 *1281:B1 *1281:A3 0.000658711
53 *1281:B1 *265:69 0.000141879
54 *1335:CLK *265:35 0
55 *1341:CLK *1275:A3 5.3304e-05
56 *16:10 *265:54 0
57 *22:11 *265:54 0
58 *25:13 *265:54 0
59 *82:8 *265:41 0.000195248
60 *102:25 *265:54 0.00017192
61 *102:35 *1277:A3 2.22183e-05
62 *102:35 *265:93 3.48266e-05
63 *102:57 *1267:A3 0
64 *102:57 *265:108 5.08033e-05
65 *102:88 *1279:A3 7.53384e-06
66 *102:100 *1281:A3 0.000108759
67 *103:10 *1213:A 0.000273343
68 *103:10 *265:25 0.000102638
69 *105:6 *265:8 8.19692e-05
70 *105:10 *1213:A 0
71 *105:10 *265:25 0
72 *105:21 *265:25 0
73 *195:39 *1213:A 0
74 *196:51 *1213:A 9.20311e-06
75 *219:10 *1277:A3 0
76 *219:67 *1267:A3 0
77 *225:8 *265:25 0.000697608
78 *232:8 *1269:A3 6.16439e-05
79 *236:10 *1277:A3 1.14452e-05
80 *237:8 *1277:A3 0
81 *237:8 *265:93 0
82 *238:8 *265:82 9.84794e-05
83 *238:8 *265:93 2.02872e-05
84 *245:14 *265:108 0.000137651
85 *245:31 *1267:A3 7.53384e-06
86 *248:18 *265:25 0.00030894
87 *250:10 *265:41 0.000334466
88 *250:10 *265:54 0.000391663
89 *261:10 *265:41 0
*RES
1 *1365:X *265:8 40.5271 
2 *265:8 *1213:A 42.0186 
3 *265:8 *265:25 30.8464 
4 *265:25 *265:35 49.8886 
5 *265:35 *265:41 8.78286 
6 *265:41 *1275:A3 38.6214 
7 *265:41 *265:54 26.4136 
8 *265:54 *1279:A3 24.0979 
9 *265:54 *265:65 19.9093 
10 *265:65 *265:69 17.2579 
11 *265:69 *1454:A 24.5329 
12 *265:69 *265:82 2.07143 
13 *265:82 *1249:B 23 
14 *265:82 *265:93 17.5271 
15 *265:93 *1277:A3 38.8493 
16 *265:93 *265:108 44.9143 
17 *265:108 *1267:A3 45.1464 
18 *265:108 *1269:A3 47.3421 
19 *265:65 *1281:A3 46.9486 
20 *265:25 *1260:A2 23 
*END

*D_NET *266 0.0151316
*CONN
*I *1105:A_N I *D sky130_fd_sc_hd__and3b_2
*I *1193:A1 I *D sky130_fd_sc_hd__o311a_2
*I *1190:C I *D sky130_fd_sc_hd__or4_2
*I *1154:A I *D sky130_fd_sc_hd__and3_2
*I *1155:A I *D sky130_fd_sc_hd__nand3_2
*I *1203:A1 I *D sky130_fd_sc_hd__o311a_2
*I *1153:A I *D sky130_fd_sc_hd__and4_2
*I *1112:A1 I *D sky130_fd_sc_hd__a31o_2
*I *1104:A_N I *D sky130_fd_sc_hd__nand2b_2
*I *1109:A I *D sky130_fd_sc_hd__or2_2
*I *1366:X O *D sky130_fd_sc_hd__clkdlybuf4s25_1
*CAP
1 *1105:A_N 2.89075e-05
2 *1193:A1 0
3 *1190:C 0.00052343
4 *1154:A 0
5 *1155:A 7.59407e-05
6 *1203:A1 0
7 *1153:A 0
8 *1112:A1 0
9 *1104:A_N 0
10 *1109:A 0
11 *1366:X 6.95452e-05
12 *266:141 0.000597389
13 *266:117 0.000779098
14 *266:102 0.000415342
15 *266:98 0.000419546
16 *266:90 0.000960868
17 *266:81 0.000651332
18 *266:75 0.000652573
19 *266:73 6.95452e-05
20 *266:59 0.00041506
21 *266:44 7.88568e-05
22 *266:38 0.000943628
23 *266:18 0.000234575
24 *266:12 0.00119397
25 *266:4 0.0014091
26 *1155:A *1099:A2 0.000228001
27 *1190:C *271:76 0
28 *266:12 *1104:B 0.000267201
29 *266:12 *1366:A 4.94192e-05
30 *266:12 *368:6 0.000401899
31 *266:18 *300:18 1.01436e-05
32 *266:38 *1108:A 4.08537e-05
33 *266:38 *1151:A1 1.51884e-05
34 *266:38 *368:6 5.67058e-05
35 *266:38 *368:17 0.00012612
36 *266:44 *300:42 1.14452e-05
37 *266:44 *368:27 7.02841e-05
38 *266:59 *1151:A1 0.00014611
39 *266:59 *1187:A 5.3304e-05
40 *266:59 *370:22 0.000108681
41 *266:73 *1105:C 2.54046e-05
42 *266:81 *1105:C 1.64354e-05
43 *266:81 *271:12 0
44 *266:81 *365:25 0
45 *266:98 *271:12 1.69668e-05
46 *266:98 *337:10 1.12487e-05
47 *266:102 *1099:A2 2.25927e-05
48 *266:117 *1154:B 0.000142835
49 *266:117 *271:76 0
50 *266:141 *1167:C1 3.64377e-05
51 *266:141 *268:23 0
52 *1099:A3 *266:98 6.17437e-06
53 *1099:A3 *266:102 4.21281e-05
54 *1108:B *266:38 4.6318e-06
55 *1154:C *1190:C 4.5041e-05
56 *1154:C *266:117 6.92088e-05
57 *1176:B1 *266:59 5.3304e-05
58 *1190:D *1190:C 4.30437e-05
59 *1344:CLK *266:38 4.06849e-05
60 *1344:D *266:38 1.32939e-05
61 *29:8 *266:98 6.07611e-06
62 *59:8 *266:141 5.56306e-05
63 *117:20 *1155:A 5.50106e-05
64 *117:20 *266:44 0.000141879
65 *117:20 *266:117 0.000304257
66 *125:12 *266:38 8.84817e-06
67 *127:23 *1105:A_N 2.93845e-05
68 *127:23 *266:81 0.000125488
69 *129:8 *266:73 3.56537e-05
70 *129:8 *266:81 0
71 *158:16 *1190:C 9.93079e-05
72 *159:6 *266:102 0.000222785
73 *159:6 *266:117 0.000255642
74 *159:10 *266:81 0
75 *159:10 *266:90 0
76 *159:10 *266:141 0
77 *173:22 *266:98 0.000301945
78 *173:22 *266:141 0
79 *179:45 *266:141 0.000222204
80 *185:22 *266:81 1.69668e-05
81 *188:8 *266:81 6.07611e-06
82 *188:8 *266:90 3.31127e-05
83 *188:8 *266:141 5.56203e-05
84 *239:122 *266:59 0
85 *244:91 *266:12 4.79544e-05
86 *244:91 *266:18 0.000593361
87 *246:56 *266:98 0.000111709
88 *246:56 *266:102 5.50106e-05
89 *246:56 *266:141 0
90 *246:69 *266:81 0.000194309
91 *246:76 *266:141 0
92 *248:29 *266:18 6.07611e-06
93 *248:33 *266:18 0.000296476
94 *256:10 *266:141 2.29192e-05
95 *256:29 *266:141 0.000134443
*RES
1 *1366:X *266:4 23 
2 *266:4 *266:12 15.9293 
3 *266:12 *266:18 37.8921 
4 *266:18 *1109:A 23 
5 *266:12 *1104:A_N 23 
6 *266:4 *266:38 36.7321 
7 *266:38 *266:44 31.9057 
8 *266:44 *1112:A1 23 
9 *266:38 *266:59 36.6079 
10 *266:59 *1153:A 23 
11 *1366:X *266:73 39.5536 
12 *266:73 *266:75 15 
13 *266:75 *266:81 26.8279 
14 *266:81 *1203:A1 38 
15 *266:81 *266:90 0.849286 
16 *266:90 *266:98 35.51 
17 *266:98 *266:102 17.5271 
18 *266:102 *1155:A 26.3764 
19 *266:102 *266:117 7.685 
20 *266:117 *1154:A 23 
21 *266:117 *1190:C 31.1614 
22 *266:90 *266:141 29.4171 
23 *266:141 *1193:A1 23 
24 *266:75 *1105:A_N 23.6214 
*END

*D_NET *267 0.00646719
*CONN
*I *1195:A1 I *D sky130_fd_sc_hd__o311a_2
*I *1197:A1 I *D sky130_fd_sc_hd__o311a_2
*I *1200:C I *D sky130_fd_sc_hd__or4_2
*I *1207:A1 I *D sky130_fd_sc_hd__o311a_2
*I *1205:A1 I *D sky130_fd_sc_hd__o311a_2
*I *1367:X O *D sky130_fd_sc_hd__clkdlybuf4s25_1
*CAP
1 *1195:A1 0
2 *1197:A1 9.89313e-05
3 *1200:C 0
4 *1207:A1 0
5 *1205:A1 0.000194416
6 *1367:X 0
7 *267:48 0.00039288
8 *267:42 0.000812358
9 *267:31 0.000490445
10 *267:25 0.000891936
11 *267:17 0.000935406
12 *267:4 0.000407785
13 *1197:A1 *269:57 5.3304e-05
14 *1205:A1 *1205:C1 9.84851e-05
15 *267:17 *1205:C1 0.000165526
16 *267:17 *365:25 0.000178517
17 *267:25 *1205:C1 0.000183733
18 *267:25 *269:108 0
19 *267:31 *287:23 0
20 *267:48 *1199:B 0
21 *267:48 *269:57 0
22 *267:48 *353:73 0
23 *1194:A2 *267:25 5.10686e-05
24 *1195:A2 *267:17 3.91386e-05
25 *1195:B1 *267:25 0.000225399
26 *1196:A1 *267:48 0
27 *1205:A2 *1205:A1 1.32939e-05
28 *1205:A3 *1205:A1 5.10686e-05
29 *1206:A1 *267:42 1.14154e-05
30 *1206:A2 *267:31 0
31 *1206:A2 *267:48 4.43717e-05
32 *1207:A2 *267:42 8.2832e-05
33 *61:10 *1197:A1 5.70419e-05
34 *119:14 *1197:A1 0.000120867
35 *119:14 *267:42 1.57571e-05
36 *172:21 *267:25 5.26097e-05
37 *172:27 *267:17 0.000267178
38 *172:27 *267:25 1.32939e-05
39 *179:60 *267:25 6.07611e-06
40 *185:47 *267:48 9.98891e-05
41 *185:58 *267:31 0
42 *185:58 *267:48 0.000190205
43 *190:8 *267:42 0.000157157
44 *247:19 *267:31 0
45 *256:29 *267:25 6.48049e-05
*RES
1 *1367:X *267:4 23 
2 *267:4 *1205:A1 26.9771 
3 *267:4 *267:17 5.88286 
4 *267:17 *267:25 43.8579 
5 *267:25 *267:31 32.61 
6 *267:31 *1207:A1 23 
7 *267:31 *267:42 6.85643 
8 *267:42 *267:48 38.5964 
9 *267:48 *1200:C 23 
10 *267:42 *1197:A1 26.0036 
11 *267:17 *1195:A1 23 
*END

*D_NET *268 0.0156556
*CONN
*I *1159:C1 I *D sky130_fd_sc_hd__o211a_2
*I *1169:C1 I *D sky130_fd_sc_hd__o211a_2
*I *1271:C1 I *D sky130_fd_sc_hd__o311a_2
*I *1269:C1 I *D sky130_fd_sc_hd__o311a_2
*I *1277:C1 I *D sky130_fd_sc_hd__o311a_2
*I *1275:C1 I *D sky130_fd_sc_hd__o311a_2
*I *1259:A I *D sky130_fd_sc_hd__and3_2
*I *1273:C1 I *D sky130_fd_sc_hd__o311a_2
*I *1267:C1 I *D sky130_fd_sc_hd__o311a_2
*I *1167:C1 I *D sky130_fd_sc_hd__o211a_2
*I *1368:X O *D sky130_fd_sc_hd__clkdlybuf4s25_1
*CAP
1 *1159:C1 0.000154593
2 *1169:C1 0
3 *1271:C1 0
4 *1269:C1 1.10063e-05
5 *1277:C1 0
6 *1275:C1 0.000431683
7 *1259:A 0.000316802
8 *1273:C1 9.64125e-05
9 *1267:C1 3.64344e-05
10 *1167:C1 8.10091e-05
11 *1368:X 0.000264833
12 *268:112 3.10641e-05
13 *268:83 0.00109249
14 *268:79 0.000823651
15 *268:58 0.00094199
16 *268:50 0.000734671
17 *268:46 0.000850023
18 *268:31 0.00104133
19 *268:23 0.000992516
20 *268:8 0.000680217
21 *1267:C1 *1079:A0 0.000187129
22 *1273:C1 *281:14 0.000170339
23 *1275:C1 *1274:A 0.000141954
24 *268:8 *272:12 0.00010904
25 *268:31 *1079:A0 0.000128723
26 *268:31 *1297:D 0.000147908
27 *268:31 *1378:A 9.41704e-05
28 *268:31 *279:6 5.50049e-05
29 *268:31 *279:29 0.000175903
30 *268:46 *1415:A 6.95872e-05
31 *268:46 *284:10 0
32 *268:46 *322:8 0.000136486
33 *268:50 *292:22 5.67058e-05
34 *268:58 *281:14 0.000117071
35 *268:79 *1081:A1 0.000161121
36 *268:79 *1278:A 5.67058e-05
37 *268:79 *386:52 0
38 *268:79 *390:12 0.000357208
39 *268:83 *313:10 0
40 *1159:B1 *1159:C1 5.3304e-05
41 *1166:B *1159:C1 0.000269151
42 *1166:B *268:23 0.000435924
43 *1271:A2 *1269:C1 5.50049e-05
44 *1271:A2 *268:50 8.56254e-05
45 *1271:A2 *268:58 5.61697e-05
46 *1274:B *1275:C1 0.000146418
47 *1275:B1 *1275:C1 0.00010018
48 *1341:CLK *1275:C1 0.000155937
49 *1341:D *1275:C1 8.38361e-05
50 *18:9 *268:79 1.22803e-05
51 *64:8 *268:46 0
52 *85:8 *268:79 0.000380096
53 *89:8 *268:83 0
54 *102:25 *1275:C1 0
55 *102:57 *268:79 0.000236792
56 *102:107 *268:58 5.61255e-06
57 *106:8 *268:79 0.000322603
58 *158:67 *1159:C1 6.17437e-06
59 *159:27 *1159:C1 0.000165577
60 *159:27 *268:23 0.000278688
61 *159:38 *1159:C1 6.07611e-06
62 *159:48 *268:46 8.51329e-05
63 *165:10 *1167:C1 8.51225e-05
64 *165:10 *268:23 0.000162006
65 *166:8 *268:50 2.02517e-05
66 *219:12 *268:83 0
67 *219:16 *1259:A 0
68 *219:16 *268:83 0
69 *219:67 *268:79 0.000123739
70 *226:10 *1259:A 1.14452e-05
71 *231:8 *268:46 0
72 *236:10 *268:83 8.16356e-05
73 *245:31 *1267:C1 4.94073e-05
74 *245:31 *268:31 0.000151305
75 *248:10 *1259:A 3.56433e-05
76 *252:10 *1267:C1 3.22879e-05
77 *252:10 *268:46 6.4393e-05
78 *252:27 *268:46 0.000264477
79 *256:10 *268:23 3.61123e-05
80 *256:29 *268:23 3.95159e-06
81 *261:10 *1259:A 0
82 *265:108 *268:79 0.000810976
83 *266:141 *1167:C1 3.64377e-05
84 *266:141 *268:23 0
*RES
1 *1368:X *268:8 41.48 
2 *268:8 *1167:C1 40.2579 
3 *268:8 *268:23 9.715 
4 *268:23 *268:31 26.2686 
5 *268:31 *1267:C1 25.0507 
6 *268:31 *268:46 42.035 
7 *268:46 *268:50 5.88286 
8 *268:50 *268:58 5.57214 
9 *268:58 *1273:C1 25.0714 
10 *268:58 *268:79 48.3321 
11 *268:79 *268:83 20.075 
12 *268:83 *1259:A 44.1314 
13 *268:83 *1275:C1 46.2857 
14 *268:79 *1277:C1 23 
15 *268:50 *268:112 0.497143 
16 *268:112 *1269:C1 23.6214 
17 *268:112 *1271:C1 23 
18 *268:46 *1169:C1 23 
19 *268:23 *1159:C1 42.2879 
*END

*D_NET *269 0.0159069
*CONN
*I *1171:C1 I *D sky130_fd_sc_hd__o211a_2
*I *1161:C1 I *D sky130_fd_sc_hd__o211a_2
*I *1205:C1 I *D sky130_fd_sc_hd__o311a_2
*I *1195:C1 I *D sky130_fd_sc_hd__o311a_2
*I *1163:C1 I *D sky130_fd_sc_hd__o211a_2
*I *1165:C1 I *D sky130_fd_sc_hd__o211a_2
*I *1197:C1 I *D sky130_fd_sc_hd__o311a_2
*I *1201:C1 I *D sky130_fd_sc_hd__o211a_2
*I *1183:A I *D sky130_fd_sc_hd__and2_2
*I *1193:C1 I *D sky130_fd_sc_hd__o311a_2
*I *1369:X O *D sky130_fd_sc_hd__clkdlybuf4s25_1
*CAP
1 *1171:C1 0
2 *1161:C1 0
3 *1205:C1 0.000442004
4 *1195:C1 1.49804e-05
5 *1163:C1 0
6 *1165:C1 2.1727e-05
7 *1197:C1 0
8 *1201:C1 0
9 *1183:A 4.01155e-05
10 *1193:C1 5.12921e-05
11 *1369:X 0.000305713
12 *269:144 0.000610954
13 *269:129 0.000980789
14 *269:108 0.000879784
15 *269:97 0.000388638
16 *269:81 0.000369403
17 *269:66 0.00071051
18 *269:57 0.000782718
19 *269:38 0.00121707
20 *269:25 0.00146531
21 *269:4 0.000722755
22 *1183:A *353:40 0
23 *1205:C1 *365:25 9.17998e-05
24 *269:38 *1199:A 1.01436e-05
25 *269:38 *353:40 4.02603e-05
26 *269:38 *353:42 5.41288e-05
27 *269:38 *353:56 7.88926e-05
28 *269:38 *354:75 0.000136486
29 *269:57 *1199:A 0.000240695
30 *269:66 *1165:A1 0.000170848
31 *269:97 *1194:B1_N 4.6318e-06
32 *269:97 *272:42 0
33 *269:108 *1194:B1_N 3.83778e-05
34 *269:129 *1194:B1_N 0.00010403
35 *269:144 *289:10 9.84851e-05
36 rx_data[3] *269:81 0
37 *1165:A2 *1165:C1 4.00259e-06
38 *1165:A2 *269:66 2.64616e-05
39 *1171:B1 *269:144 2.02517e-05
40 *1194:A2 *1195:C1 5.50106e-05
41 *1195:B1 *1195:C1 5.50106e-05
42 *1196:A1 *269:57 1.79416e-05
43 *1197:A1 *269:57 5.3304e-05
44 *1197:A3 *269:57 0.000141954
45 *1205:A1 *1205:C1 9.84851e-05
46 *1205:A2 *1205:C1 0.000151628
47 *1205:A3 *1205:C1 8.1796e-05
48 *1308:CLK *269:25 0.000394999
49 *1308:D *269:25 1.64354e-05
50 *1446:A *269:144 0.000402806
51 *9:8 *269:66 0.000648929
52 *9:8 *269:81 9.67842e-05
53 *11:8 *269:144 4.75206e-05
54 *56:10 *269:25 8.4047e-05
55 *61:10 *269:57 6.32777e-05
56 *94:8 *269:25 1.04196e-05
57 *94:8 *269:38 2.80924e-06
58 *119:6 *269:38 0.000570587
59 *119:10 *269:38 0.000138727
60 *119:10 *269:57 0.000616937
61 *119:14 *269:57 9.58714e-05
62 *158:31 *269:81 4.49946e-05
63 *159:59 *269:129 0.000382564
64 *159:76 *269:144 0.00025668
65 *159:91 *269:81 0
66 *163:10 *269:81 8.51432e-05
67 *173:48 *1193:C1 2.93747e-05
68 *173:48 *269:97 7.88828e-05
69 *179:60 *269:97 0.000344159
70 *254:25 *269:81 0.000308661
71 *256:29 *269:129 0
72 *256:29 *269:144 5.86165e-05
73 *267:17 *1205:C1 0.000165526
74 *267:25 *1205:C1 0.000183733
75 *267:25 *269:108 0
76 *267:48 *269:57 0
*RES
1 *1369:X *269:4 23 
2 *269:4 *1193:C1 24.1186 
3 *269:4 *269:25 39.6114 
4 *269:25 *1183:A 23.8493 
5 *269:25 *269:38 27.5321 
6 *269:38 *1201:C1 38 
7 *269:38 *269:57 27.8636 
8 *269:57 *1197:C1 23 
9 *269:57 *269:66 8.265 
10 *269:66 *1165:C1 23.4971 
11 *269:66 *269:81 38.99 
12 *269:81 *1163:C1 23 
13 *1369:X *269:97 44.2971 
14 *269:97 *1195:C1 38.6214 
15 *269:97 *269:108 1.20143 
16 *269:108 *1205:C1 47.8807 
17 *269:108 *269:129 8.99 
18 *269:129 *1161:C1 38 
19 *269:129 *269:144 28.8579 
20 *269:144 *1171:C1 23 
*END

*D_NET *270 0.00369462
*CONN
*I *1267:A1 I *D sky130_fd_sc_hd__o311a_2
*I *1437:X O *D sky130_fd_sc_hd__clkdlybuf4s25_1
*CAP
1 *1267:A1 0
2 *1437:X 0.000291431
3 *270:14 0.000725516
4 *270:8 0.00101695
5 *270:14 *1079:A0 0.000141052
6 *270:14 *1268:A 0
7 *270:14 *1417:A 7.48331e-05
8 *270:14 *391:16 0.000467275
9 *1267:A3 *270:14 0.000274034
10 *1269:A3 *270:14 0.000288624
11 *3:22 *270:14 1.50741e-05
12 *17:9 *270:8 5.41288e-05
13 *18:9 *270:14 0
14 *19:11 *270:8 0.000118143
15 *219:67 *270:14 0
16 *232:8 *270:14 2.93666e-05
17 *239:89 *270:14 0.000198196
*RES
1 *1437:X *270:8 42.4329 
2 *270:8 *270:14 32.9179 
3 *270:14 *1267:A1 23 
*END

*D_NET *271 0.0165125
*CONN
*I *1157:C1 I *D sky130_fd_sc_hd__o211a_2
*I *1186:A I *D sky130_fd_sc_hd__and3_2
*I *1191:C1 I *D sky130_fd_sc_hd__o211a_2
*I *1095:B I *D sky130_fd_sc_hd__and3_2
*I *1178:C1 I *D sky130_fd_sc_hd__o211a_2
*I *1369:A I *D sky130_fd_sc_hd__clkdlybuf4s25_1
*I *1099:A2 I *D sky130_fd_sc_hd__a31o_2
*I *1124:B1 I *D sky130_fd_sc_hd__o21a_2
*I *1153:C I *D sky130_fd_sc_hd__and4_2
*I *1203:C1 I *D sky130_fd_sc_hd__o311a_2
*I *1370:X O *D sky130_fd_sc_hd__clkdlybuf4s25_1
*CAP
1 *1157:C1 0.000374609
2 *1186:A 0.000359445
3 *1191:C1 2.34823e-05
4 *1095:B 0
5 *1178:C1 0
6 *1369:A 0
7 *1099:A2 0.00029229
8 *1124:B1 0.000171859
9 *1153:C 0
10 *1203:C1 0
11 *1370:X 0
12 *271:118 0.0010266
13 *271:107 0.000797405
14 *271:86 0.000480513
15 *271:76 0.000755396
16 *271:59 0.000779223
17 *271:49 0.000657848
18 *271:45 0.00123238
19 *271:34 0.000789234
20 *271:25 0.00016059
21 *271:19 0.00125666
22 *271:12 0.00049368
23 *271:4 0.00127758
24 *1124:B1 *1150:A2 1.44546e-05
25 *1124:B1 *326:10 0
26 *1124:B1 *368:69 1.7992e-05
27 *1124:B1 *368:93 7.1357e-05
28 *1157:C1 *1157:A1 0.000250021
29 *1157:C1 *1191:A1 0.000382574
30 *1157:C1 *359:14 5.50106e-05
31 *1186:A *355:16 5.08899e-05
32 *271:12 *337:10 0
33 *271:19 *1420:A 7.4416e-05
34 *271:19 *326:10 8.91468e-07
35 *271:19 *368:65 7.43025e-06
36 *271:25 *1420:A 2.99716e-05
37 *271:25 *326:10 0.000135547
38 *271:25 *370:18 2.79064e-05
39 *271:34 *326:10 2.92911e-06
40 *271:45 *368:93 5.01247e-05
41 *271:45 *368:108 6.74138e-05
42 *271:59 *1155:B 8.62876e-05
43 *271:59 *370:91 8.4047e-05
44 *271:76 *272:27 0
45 *271:86 *353:56 0
46 *271:86 *354:28 7.59794e-05
47 *271:118 *1191:A1 0.000335447
48 *1099:A3 *1099:A2 9.41704e-05
49 *1108:B *271:12 0
50 *1153:D *271:25 1.58805e-05
51 *1155:A *1099:A2 0.000228001
52 *1177:A *271:76 0
53 *1177:A *271:86 3.92407e-05
54 *1179:B *271:86 9.26098e-05
55 *1182:A2 *271:76 2.09183e-05
56 *1182:A2 *271:86 0
57 *1186:B *1186:A 1.73399e-05
58 *1190:C *271:76 0
59 *1308:CLK *271:86 9.67842e-05
60 *29:8 *271:12 0.000194318
61 *56:10 *271:86 0
62 *58:10 *1157:C1 0
63 *93:10 *1186:A 1.47563e-05
64 *94:10 *271:86 0.000323812
65 *116:48 *271:45 1.02561e-05
66 *116:50 *271:49 1.40958e-05
67 *116:63 *271:49 9.40782e-05
68 *116:80 *271:45 0
69 *117:20 *1099:A2 4.95081e-05
70 *117:20 *271:59 4.21281e-05
71 *119:50 *1157:C1 0
72 *120:8 *271:45 0
73 *121:8 *271:49 0.000212319
74 *121:8 *271:59 2.93747e-05
75 *127:23 *271:12 5.70419e-05
76 *127:23 *271:19 0.00028305
77 *129:8 *271:12 2.29192e-05
78 *158:27 *1186:A 0
79 *160:10 *1157:C1 3.82852e-05
80 *160:10 *1186:A 7.03766e-05
81 *168:10 *271:19 9.84794e-05
82 *169:18 *271:59 0.000185755
83 *169:18 *271:76 4.23714e-05
84 *170:8 *271:25 0
85 *170:46 *271:45 0
86 *171:10 *271:76 8.26569e-05
87 *172:17 *271:86 8.67875e-05
88 *175:10 *271:86 0
89 *177:10 *1186:A 0.000114083
90 *185:8 *271:45 1.01436e-05
91 *185:8 *271:107 0.000293785
92 *185:12 *271:107 5.3304e-05
93 *185:22 *271:12 2.71291e-05
94 *185:38 *271:107 2.46345e-05
95 *246:12 *271:107 0.00012238
96 *246:12 *271:118 0.000103707
97 *246:20 *1157:C1 4.92689e-05
98 *246:20 *1186:A 0.000367698
99 *266:81 *271:12 0
100 *266:98 *271:12 1.69668e-05
101 *266:102 *1099:A2 2.25927e-05
102 *266:117 *271:76 0
*RES
1 *1370:X *271:4 23 
2 *271:4 *271:12 38.99 
3 *271:12 *1203:C1 23 
4 *271:4 *271:19 10.6264 
5 *271:19 *271:25 33.6664 
6 *271:25 *1153:C 23 
7 *271:19 *271:34 18.9564 
8 *271:34 *1124:B1 42.0186 
9 *271:34 *271:45 5.77929 
10 *271:45 *271:49 21.815 
11 *271:49 *271:59 34.3293 
12 *271:59 *1099:A2 28.8829 
13 *271:59 *271:76 35.5721 
14 *271:76 *271:86 40.9164 
15 *271:86 *1369:A 23 
16 *271:76 *1178:C1 23 
17 *271:49 *1095:B 23 
18 *271:45 *271:107 24.28 
19 *271:107 *1191:C1 23.4971 
20 *271:107 *271:118 20.8621 
21 *271:118 *1186:A 46.1614 
22 *271:118 *1157:C1 47.9221 
*END

*D_NET *272 0.0161682
*CONN
*I *1281:C1 I *D sky130_fd_sc_hd__o311a_2
*I *1279:C1 I *D sky130_fd_sc_hd__o311a_2
*I *1207:C1 I *D sky130_fd_sc_hd__o311a_2
*I *1370:A I *D sky130_fd_sc_hd__clkdlybuf4s25_1
*I *1368:A I *D sky130_fd_sc_hd__clkdlybuf4s25_1
*I *1371:X O *D sky130_fd_sc_hd__clkdlybuf4s25_1
*CAP
1 *1281:C1 0.000311212
2 *1279:C1 0.000366418
3 *1207:C1 0
4 *1370:A 0
5 *1368:A 0
6 *1371:X 0
7 *272:57 0.00367
8 *272:42 0.00089837
9 *272:27 0.00056234
10 *272:23 0.00193084
11 *272:12 0.000856039
12 *272:6 0.00337828
13 *1279:C1 *1081:A2 0.000221997
14 *1279:C1 *1408:A 0.000137618
15 *1281:C1 *396:8 8.97403e-05
16 *272:12 *365:25 0
17 *272:23 *354:36 7.53384e-06
18 *272:27 *1155:B 0
19 *272:27 *1430:A 0.00012758
20 *272:27 *337:10 0
21 *272:27 *370:14 0.0003731
22 *272:42 *1194:B1_N 0
23 *272:42 *354:36 0.000379422
24 *272:42 *358:10 4.96717e-05
25 *272:57 *279:14 0
26 *272:57 *280:8 0
27 *272:57 *365:25 0
28 *272:57 *396:8 1.86869e-05
29 *1099:A3 *272:27 1.80023e-05
30 *1108:B *272:27 2.82307e-05
31 *1177:A *272:27 0.00012838
32 *1177:A *272:42 2.08324e-05
33 *1181:A *272:42 0.000168754
34 *1272:B *272:57 0
35 *1279:B1 *1279:C1 0.000199412
36 *1281:B1 *1281:C1 0.000267689
37 *1281:B1 *272:57 0.000119931
38 *1308:CLK *272:42 0
39 *24:13 *1281:C1 0
40 *49:10 *272:12 0.000102365
41 *94:10 *272:42 7.1949e-05
42 *101:10 *272:27 1.14452e-05
43 *102:35 *272:57 1.34542e-05
44 *117:20 *272:27 0.000110659
45 *118:10 *272:27 7.81176e-05
46 *158:63 *272:42 0.00037402
47 *169:18 *272:27 0
48 *172:17 *272:42 0.000353536
49 *173:12 *272:27 0.000123428
50 *173:12 *272:42 1.37349e-05
51 *173:36 *272:42 1.47563e-05
52 *173:48 *272:42 0
53 *179:60 *272:42 0
54 *185:66 *272:42 0.000167478
55 *237:8 *272:57 0
56 *246:56 *272:27 0
57 *256:10 *272:12 0.000211113
58 *256:10 *272:23 5.41385e-05
59 *265:69 *272:57 7.76364e-06
60 *265:93 *272:57 2.11066e-05
61 *268:8 *272:12 0.00010904
62 *269:97 *272:42 0
63 *271:76 *272:27 0
*RES
1 *1371:X *272:6 38 
2 *272:6 *272:12 24.1557 
3 *272:12 *1368:A 23 
4 *272:12 *272:23 23.3893 
5 *272:23 *272:27 29.5829 
6 *272:27 *1370:A 23 
7 *272:23 *272:42 37.7236 
8 *272:42 *1207:C1 23 
9 *272:6 *272:57 34.5273 
10 *272:57 *1279:C1 44.8564 
11 *272:57 *1281:C1 45.54 
*END

*D_NET *273 0.0167801
*CONN
*I *1261:B1 I *D sky130_fd_sc_hd__a31o_2
*I *1265:B1 I *D sky130_fd_sc_hd__a21oi_2
*I *1075:A I *D sky130_fd_sc_hd__inv_2
*I *1108:A I *D sky130_fd_sc_hd__or3b_2
*I *1107:A I *D sky130_fd_sc_hd__nor2_2
*I *1252:C1 I *D sky130_fd_sc_hd__a211oi_2
*I *1242:C1 I *D sky130_fd_sc_hd__a211o_2
*I *1214:A I *D sky130_fd_sc_hd__nor2_2
*I *1172:A I *D sky130_fd_sc_hd__or2_2
*I *1240:A I *D sky130_fd_sc_hd__or3_2
*I *1372:X O *D sky130_fd_sc_hd__clkdlybuf4s25_1
*CAP
1 *1261:B1 6.14537e-05
2 *1265:B1 0.000289443
3 *1075:A 2.77417e-05
4 *1108:A 0.000278647
5 *1107:A 8.09752e-05
6 *1252:C1 0
7 *1242:C1 0
8 *1214:A 0
9 *1172:A 0.000110068
10 *1240:A 6.32221e-05
11 *1372:X 0.000117872
12 *273:122 0.00155762
13 *273:105 0.00188617
14 *273:97 0.00123129
15 *273:78 0.00116963
16 *273:65 0.000988017
17 *273:35 0.000381679
18 *273:14 0.000588058
19 *273:12 0.000907772
20 *273:10 0.000784696
21 *273:8 0.000515743
22 *1107:A *300:18 0
23 *1108:A *367:14 0
24 *1108:A *367:27 0
25 *1108:A *367:31 0.00014196
26 *1108:A *368:17 0.00014196
27 *1108:A *368:27 0
28 *1261:B1 *330:8 4.6318e-06
29 *1261:B1 *387:10 0
30 *1261:B1 *387:51 5.67058e-05
31 *1265:B1 *1084:B 2.3853e-05
32 *273:8 *387:10 0
33 *273:10 *330:8 2.61862e-05
34 *273:10 *388:12 0.00015192
35 *273:65 *1242:A1 1.10658e-05
36 *273:78 *1242:A1 0.000457852
37 *273:97 *1251:B1_N 0.00013449
38 *273:105 *384:8 0.00014411
39 *273:105 *384:27 0.000220001
40 *1214:B *1172:A 0
41 *1242:A2 *273:65 2.02517e-05
42 *1242:B1 *273:65 0.000224579
43 *1265:A1 *1265:B1 0.000143655
44 *1265:A2 *1265:B1 0.000122217
45 *1305:D *273:122 8.38361e-05
46 *1346:CLK *1107:A 6.07611e-06
47 *53:10 *1107:A 0.000110922
48 *53:10 *273:105 2.55642e-05
49 *83:10 *1265:B1 1.76557e-05
50 *92:12 *273:10 0
51 *99:8 *273:105 7.39745e-05
52 *100:12 *273:105 4.6318e-06
53 *124:30 *273:122 1.72202e-05
54 *124:34 *273:122 0.000342263
55 *125:12 *273:122 0.000570587
56 *195:39 *273:78 0
57 *195:39 *273:97 0
58 *195:50 *273:97 0
59 *196:51 *1261:B1 2.93845e-05
60 *213:53 *273:14 0
61 *213:53 *273:65 0.000279813
62 *214:10 *1240:A 5.70419e-05
63 *219:56 *273:97 0.000330627
64 *220:8 *273:97 0.000395895
65 *225:14 *273:8 8.54136e-05
66 *225:14 *273:10 1.09886e-05
67 *229:8 *273:10 0
68 *239:23 *1075:A 2.93845e-05
69 *239:23 *273:97 2.25809e-05
70 *239:33 *273:78 0.000282265
71 *239:33 *273:97 7.34394e-06
72 *241:8 *1107:A 1.37246e-05
73 *241:24 *1172:A 0.00010655
74 *241:24 *1240:A 9.84851e-05
75 *241:24 *273:35 0.000357631
76 *241:73 *273:105 0.000230874
77 *248:18 *273:8 0
78 *248:33 *273:105 0
79 *248:45 *1107:A 5.09072e-05
80 *259:10 *273:14 0
81 *259:10 *273:35 3.20914e-05
82 *266:38 *1108:A 4.08537e-05
*RES
1 *1372:X *273:8 40.4339 
2 *273:8 *273:10 6.3075 
3 *273:10 *273:12 2.61 
4 *273:12 *273:14 4.37071 
5 *273:14 *1240:A 39.9471 
6 *273:14 *273:35 49.8057 
7 *273:35 *1172:A 26.045 
8 *273:35 *1214:A 23 
9 *273:12 *273:65 25.6057 
10 *273:65 *1242:C1 23 
11 *273:65 *273:78 26.4343 
12 *273:78 *1252:C1 38 
13 *273:78 *273:97 27.5943 
14 *273:97 *273:105 27.8843 
15 *273:105 *1107:A 39.9057 
16 *273:105 *273:122 48.8707 
17 *273:122 *1108:A 43.2407 
18 *273:97 *1075:A 23.6214 
19 *273:10 *1265:B1 44.38 
20 *273:8 *1261:B1 39.5639 
*END

*D_NET *274 0.00157641
*CONN
*I *1173:B I *D sky130_fd_sc_hd__or2_2
*I *1373:X O *D sky130_fd_sc_hd__dlygate4sd3_1
*CAP
1 *1173:B 0
2 *1373:X 0.000737789
3 *274:10 0.000737789
4 *274:10 *372:14 0
5 *1350:A *274:10 8.93625e-05
6 *239:51 *274:10 1.14667e-05
7 *241:8 *274:10 0
*RES
1 *1373:X *274:10 47.3214 
2 *274:10 *1173:B 38 
*END

*D_NET *275 0.00109652
*CONN
*I *1140:A1 I *D sky130_fd_sc_hd__o21ai_2
*I *1141:A1 I *D sky130_fd_sc_hd__a21oi_2
*I *1374:X O *D sky130_fd_sc_hd__dlygate4sd3_1
*CAP
1 *1140:A1 0
2 *1141:A1 0.00019725
3 *1374:X 0
4 *275:23 0.000262836
5 *275:4 0.000460086
6 *151:8 *275:23 0.00016242
7 *264:126 *1141:A1 1.39317e-05
*RES
1 *1374:X *275:4 23 
2 *275:4 *1141:A1 26.5214 
3 *275:4 *275:23 35.3443 
4 *275:23 *1140:A1 23 
*END

*D_NET *276 0.000256778
*CONN
*I *1241:A1 I *D sky130_fd_sc_hd__o21ba_2
*I *1375:X O *D sky130_fd_sc_hd__dlygate4sd3_1
*CAP
1 *1241:A1 5.52909e-05
2 *1375:X 5.52909e-05
3 *197:29 *1241:A1 0.000146197
*RES
1 *1375:X *1241:A1 47.5743 
*END

*D_NET *277 0.000766676
*CONN
*I *1202:B1_N I *D sky130_fd_sc_hd__o21bai_2
*I *1167:A1 I *D sky130_fd_sc_hd__o211a_2
*I *1376:X O *D sky130_fd_sc_hd__dlygate4sd3_1
*CAP
1 *1202:B1_N 0.000243388
2 *1167:A1 0
3 *1376:X 0.00011143
4 *277:6 0.000354817
5 *1202:A2 *1202:B1_N 0
6 *49:10 *277:6 5.70419e-05
*RES
1 *1376:X *277:6 25.3511 
2 *277:6 *1167:A1 23 
3 *277:6 *1202:B1_N 27.3189 
*END

*D_NET *278 0.000391495
*CONN
*I *1301:D I *D sky130_fd_sc_hd__dfxtp_2
*I *1377:X O *D sky130_fd_sc_hd__dlygate4sd3_1
*CAP
1 *1301:D 0.00010233
2 *1377:X 9.17955e-05
3 *278:8 0.000194125
4 *49:10 *278:8 0
5 *100:12 *278:8 0
6 *244:85 *1301:D 3.24476e-06
*RES
1 *1377:X *278:8 39.5536 
2 *278:8 *1301:D 39.6209 
*END

*D_NET *279 0.00280811
*CONN
*I *1192:B1_N I *D sky130_fd_sc_hd__o21bai_2
*I *1159:A1 I *D sky130_fd_sc_hd__o211a_2
*I *1378:X O *D sky130_fd_sc_hd__dlygate4sd3_1
*CAP
1 *1192:B1_N 0
2 *1159:A1 0
3 *1378:X 3.92298e-05
4 *279:29 0.000473693
5 *279:14 0.000203065
6 *279:6 0.000715988
7 *279:14 *365:25 0.000300117
8 *279:29 *1378:A 2.02872e-05
9 *1166:A *279:29 2.93747e-05
10 *1166:B *279:29 0.000385716
11 *252:18 *279:14 2.62411e-05
12 *256:29 *279:29 0.000383494
13 *268:31 *279:6 5.50049e-05
14 *268:31 *279:29 0.000175903
15 *272:57 *279:14 0
*RES
1 *1378:X *279:6 23.6214 
2 *279:6 *279:14 34.6348 
3 *279:14 *1159:A1 23 
4 *279:6 *279:29 40.1293 
5 *279:29 *1192:B1_N 23 
*END

*D_NET *280 0.000538994
*CONN
*I *1297:D I *D sky130_fd_sc_hd__dfxtp_2
*I *1379:X O *D sky130_fd_sc_hd__dlygate4sd3_1
*CAP
1 *1297:D 3.0974e-05
2 *1379:X 0.000136309
3 *280:8 0.000167283
4 *280:8 *1415:A 0
5 *245:31 *1297:D 5.65198e-05
6 *268:31 *1297:D 0.000147908
7 *272:57 *280:8 0
*RES
1 *1379:X *280:8 40.2579 
2 *280:8 *1297:D 39.6209 
*END

*D_NET *281 0.00328748
*CONN
*I *1269:A1 I *D sky130_fd_sc_hd__o311a_2
*I *1438:X O *D sky130_fd_sc_hd__clkdlybuf4s25_1
*CAP
1 *1269:A1 0
2 *1438:X 0.000937305
3 *281:14 0.000937305
4 *281:14 *303:20 0.000875336
5 *1271:A2 *281:14 0
6 *1273:C1 *281:14 0.000170339
7 *102:100 *281:14 9.99007e-06
8 *102:107 *281:14 0.000240131
9 *268:58 *281:14 0.000117071
*RES
1 *1438:X *281:14 39.9029 
2 *281:14 *1269:A1 23 
*END

*D_NET *282 0.00199459
*CONN
*I *1073:A I *D sky130_fd_sc_hd__inv_2
*I *1126:A2 I *D sky130_fd_sc_hd__a31o_2
*I *1380:X O *D sky130_fd_sc_hd__dlygate4sd3_1
*CAP
1 *1073:A 0
2 *1126:A2 0
3 *1380:X 7.67747e-05
4 *282:14 0.000442365
5 *282:6 0.00051914
6 *1127:B1 *282:14 7.48516e-05
7 *1282:CLK *282:14 0.000270225
8 *1330:CLK *282:6 0.000142678
9 *30:10 *282:14 7.64059e-06
10 *98:8 *282:14 0.000342913
11 *139:16 *282:14 4.46854e-05
12 *139:22 *282:14 5.82853e-05
13 *140:8 *282:14 1.50326e-05
*RES
1 *1380:X *282:6 24.5743 
2 *282:6 *282:14 39.4871 
3 *282:14 *1126:A2 23 
4 *282:6 *1073:A 23 
*END

*D_NET *283 0.000359097
*CONN
*I *1282:D I *D sky130_fd_sc_hd__dfxtp_2
*I *1381:X O *D sky130_fd_sc_hd__dlygate4sd3_1
*CAP
1 *1282:D 8.27394e-05
2 *1381:X 8.27394e-05
3 *1282:D *343:23 0.000167156
4 *1282:CLK *1282:D 2.64616e-05
*RES
1 *1381:X *1282:D 47.8902 
*END

*D_NET *284 0.00111402
*CONN
*I *1169:A1 I *D sky130_fd_sc_hd__o211a_2
*I *1204:B1_N I *D sky130_fd_sc_hd__o21bai_2
*I *1382:X O *D sky130_fd_sc_hd__dlygate4sd3_1
*CAP
1 *1169:A1 5.77731e-05
2 *1204:B1_N 7.61895e-05
3 *1382:X 0.000220754
4 *284:10 0.000239171
5 *284:10 *362:10 0
6 *64:8 *284:10 1.01436e-05
7 *159:48 *1204:B1_N 0.000228909
8 *159:48 *284:10 0
9 *166:8 *1169:A1 0.000171063
10 *166:8 *284:10 5.50049e-05
11 *189:10 *1204:B1_N 5.50106e-05
12 *268:46 *284:10 0
*RES
1 *1382:X *284:10 40.5271 
2 *284:10 *1204:B1_N 40.5271 
3 *1382:X *1169:A1 47.8746 
*END

*D_NET *285 0.000435533
*CONN
*I *1302:D I *D sky130_fd_sc_hd__dfxtp_2
*I *1383:X O *D sky130_fd_sc_hd__dlygate4sd3_1
*CAP
1 *1302:D 0.000125971
2 *1383:X 9.17955e-05
3 *285:8 0.000217767
4 *1168:A *285:8 0
5 *1450:A *285:8 0
6 *50:8 *285:8 0
*RES
1 *1383:X *285:8 39.5536 
2 *285:8 *1302:D 40.0973 
*END

*D_NET *286 0.00144508
*CONN
*I *1134:A1 I *D sky130_fd_sc_hd__o21ai_2
*I *1135:A1 I *D sky130_fd_sc_hd__a21oi_2
*I *1384:X O *D sky130_fd_sc_hd__dlygate4sd3_1
*CAP
1 *1134:A1 0
2 *1135:A1 0
3 *1384:X 8.4581e-05
4 *286:14 0.00024988
5 *286:6 0.000334462
6 *286:14 *351:8 0
7 *34:8 *286:14 3.56537e-05
8 *137:20 *286:14 5.83407e-05
9 *137:26 *286:14 0
10 *148:8 *286:14 0.000354778
11 *242:18 *286:14 0
12 *242:24 *286:14 0.000141954
13 *264:58 *286:6 9.84851e-05
14 *264:69 *286:6 8.6949e-05
*RES
1 *1384:X *286:6 25.0507 
2 *286:6 *286:14 37.0014 
3 *286:14 *1135:A1 23 
4 *286:6 *1134:A1 23 
*END

*D_NET *287 0.00137319
*CONN
*I *1206:B1_N I *D sky130_fd_sc_hd__o21bai_2
*I *1171:A1 I *D sky130_fd_sc_hd__o211a_2
*I *1385:X O *D sky130_fd_sc_hd__dlygate4sd3_1
*CAP
1 *1206:B1_N 0
2 *1171:A1 0.000103095
3 *1385:X 6.83242e-05
4 *287:23 0.000392917
5 *287:6 0.000564337
6 *287:23 *363:10 0
7 *1170:A *287:23 0
8 *1171:A2 *1171:A1 2.44616e-06
9 *1171:B1 *1171:A1 2.86899e-05
10 *1206:A2 *287:23 0
11 *51:6 *287:6 2.30292e-05
12 *65:8 *287:23 5.21024e-05
13 *158:53 *287:23 0
14 *159:89 *1171:A1 2.99328e-05
15 *159:89 *287:6 9.8971e-06
16 *167:18 *287:23 9.84177e-05
17 *247:19 *287:23 0
18 *267:31 *287:23 0
*RES
1 *1385:X *287:6 24.0979 
2 *287:6 *1171:A1 24.9834 
3 *287:6 *287:23 37.54 
4 *287:23 *1206:B1_N 23 
*END

*D_NET *288 0.000421559
*CONN
*I *1303:D I *D sky130_fd_sc_hd__dfxtp_2
*I *1386:X O *D sky130_fd_sc_hd__dlygate4sd3_1
*CAP
1 *1303:D 8.45249e-06
2 *1386:X 0.000157366
3 *288:10 0.000165819
4 *1170:A *288:10 1.86869e-05
5 *1451:A *288:10 5.47994e-05
6 *247:64 *1303:D 1.64354e-05
*RES
1 *1386:X *288:10 40.5271 
2 *288:10 *1303:D 38.1916 
*END

*D_NET *289 0.00201116
*CONN
*I *1161:A1 I *D sky130_fd_sc_hd__o211a_2
*I *1194:B1_N I *D sky130_fd_sc_hd__o21bai_2
*I *1387:X O *D sky130_fd_sc_hd__dlygate4sd3_1
*CAP
1 *1161:A1 8.87109e-06
2 *1194:B1_N 0.000394704
3 *1387:X 0.000137159
4 *289:10 0.000540734
5 *289:10 *358:10 0
6 *1161:B1 *1161:A1 1.28818e-05
7 *158:63 *1194:B1_N 0
8 *159:59 *1194:B1_N 0.000379403
9 *159:76 *1194:B1_N 1.14452e-05
10 *159:76 *289:10 0.000280437
11 *269:97 *1194:B1_N 4.6318e-06
12 *269:108 *1194:B1_N 3.83778e-05
13 *269:129 *1194:B1_N 0.00010403
14 *269:144 *289:10 9.84851e-05
15 *272:42 *1194:B1_N 0
*RES
1 *1387:X *289:10 41.7079 
2 *289:10 *1194:B1_N 46.9486 
3 *289:10 *1161:A1 38.1502 
*END

*D_NET *290 0.000869697
*CONN
*I *1298:D I *D sky130_fd_sc_hd__dfxtp_2
*I *1388:X O *D sky130_fd_sc_hd__dlygate4sd3_1
*CAP
1 *1298:D 3.52893e-05
2 *1388:X 0.000236978
3 *290:10 0.000272268
4 *158:53 *290:10 6.69899e-05
5 *247:33 *1298:D 9.07294e-05
6 *247:64 *290:10 0.000167443
7 *253:10 *290:10 0
*RES
1 *1388:X *290:10 42.3086 
2 *290:10 *1298:D 38.9943 
*END

*D_NET *291 0.00378969
*CONN
*I *1196:B1_N I *D sky130_fd_sc_hd__o21bai_2
*I *1163:A1 I *D sky130_fd_sc_hd__o211a_2
*I *1389:X O *D sky130_fd_sc_hd__dlygate4sd3_1
*CAP
1 *1196:B1_N 0
2 *1163:A1 0
3 *1389:X 0
4 *291:20 0.000494266
5 *291:12 0.0010129
6 *291:6 0.000518632
7 *291:12 *1165:A1 0
8 *291:12 *1201:A1 0
9 *291:12 *1299:D 9.84851e-05
10 *291:12 *293:10 0.000153656
11 *1163:A2 *291:20 8.24184e-05
12 *1196:A2 *291:12 0.000240435
13 *47:8 *291:20 0
14 *61:10 *291:20 0
15 *62:10 *291:12 0.000113624
16 *158:39 *291:20 4.6318e-06
17 *158:43 *291:12 1.56665e-05
18 *159:89 *291:20 0.000174996
19 *179:89 *291:12 0.000471549
20 *184:10 *291:12 5.50106e-05
21 *247:79 *291:12 0.000183733
22 *247:108 *291:12 0.000169683
*RES
1 *1389:X *291:6 38 
2 *291:6 *291:12 30.225 
3 *291:12 *291:20 40.0361 
4 *291:20 *1163:A1 23 
5 *291:12 *1196:B1_N 23 
*END

*D_NET *292 0.00391243
*CONN
*I *1271:A1 I *D sky130_fd_sc_hd__o311a_2
*I *1439:X O *D sky130_fd_sc_hd__clkdlybuf4s25_1
*CAP
1 *1271:A1 0
2 *1439:X 0.00086086
3 *292:22 0.000348445
4 *292:10 0.0012093
5 *292:22 *1417:A 3.05343e-05
6 *292:22 *391:16 0
7 *3:22 *292:22 0.000144943
8 *7:8 *292:10 5.3304e-05
9 *17:9 *292:10 2.18409e-05
10 *17:9 *292:22 6.25829e-05
11 *19:11 *292:10 0.000463621
12 *19:11 *292:22 3.47781e-05
13 *20:11 *292:10 0.000453605
14 *86:8 *292:22 0.000171906
15 *252:27 *292:22 0
16 *268:50 *292:22 5.67058e-05
*RES
1 *1439:X *292:10 37.6036 
2 *292:10 *292:22 38.3479 
3 *292:22 *1271:A1 23 
*END

*D_NET *293 0.00247237
*CONN
*I *1299:D I *D sky130_fd_sc_hd__dfxtp_2
*I *1390:X O *D sky130_fd_sc_hd__dlygate4sd3_1
*CAP
1 *1299:D 8.25364e-05
2 *1390:X 0.000548497
3 *293:10 0.000631034
4 *293:10 *1165:A1 0
5 *47:8 *293:10 0
6 *47:14 *293:10 0.000437555
7 *158:39 *1299:D 0.000169963
8 *158:43 *1299:D 0.000183733
9 *247:79 *1299:D 4.04206e-05
10 *254:14 *1299:D 0.000126488
11 *254:14 *293:10 0
12 *291:12 *1299:D 9.84851e-05
13 *291:12 *293:10 0.000153656
*RES
1 *1390:X *293:10 47.28 
2 *293:10 *1299:D 41.7959 
*END

*D_NET *294 0.00295763
*CONN
*I *1157:A1 I *D sky130_fd_sc_hd__o211a_2
*I *1191:A1 I *D sky130_fd_sc_hd__o211a_2
*I *1391:X O *D sky130_fd_sc_hd__dlygate4sd3_1
*CAP
1 *1157:A1 0.000242417
2 *1191:A1 0.000227218
3 *1391:X 0
4 *294:6 0.000469635
5 *1157:A1 *359:14 4.66945e-05
6 *1157:B1 *1157:A1 2.93845e-05
7 *1157:C1 *1157:A1 0.000250021
8 *1157:C1 *1191:A1 0.000382574
9 *1296:CLK *1191:A1 4.08664e-05
10 *160:10 *1157:A1 0.000253061
11 *160:10 *1191:A1 0.000385735
12 *246:12 *1191:A1 0.00029458
13 *271:118 *1191:A1 0.000335447
*RES
1 *1391:X *294:6 38 
2 *294:6 *1191:A1 47.3318 
3 *294:6 *1157:A1 45.1723 
*END

*D_NET *295 0.00228123
*CONN
*I *1165:A1 I *D sky130_fd_sc_hd__o211a_2
*I *1201:A1 I *D sky130_fd_sc_hd__o211a_2
*I *1392:X O *D sky130_fd_sc_hd__dlygate4sd3_1
*CAP
1 *1165:A1 0.000338993
2 *1201:A1 0.000390722
3 *1392:X 4.24857e-05
4 *295:8 0.000772201
5 *1165:A2 *1165:A1 4.00259e-06
6 *10:8 *295:8 5.50106e-05
7 *47:8 *1165:A1 0
8 *48:8 *1165:A1 0.000118899
9 *48:8 *1201:A1 0.000190205
10 *62:10 *1201:A1 5.67058e-05
11 *247:108 *1201:A1 0.000141154
12 *269:66 *1165:A1 0.000170848
13 *291:12 *1165:A1 0
14 *291:12 *1201:A1 0
15 *293:10 *1165:A1 0
*RES
1 *1392:X *295:8 38.6214 
2 *295:8 *1201:A1 46.8554 
3 *295:8 *1165:A1 44.6596 
*END

*D_NET *296 0.000224812
*CONN
*I *1156:A I *D sky130_fd_sc_hd__or2_2
*I *1393:X O *D sky130_fd_sc_hd__dlygate4sd3_1
*CAP
1 *1156:A 6.63974e-05
2 *1393:X 6.63974e-05
3 *158:16 *1156:A 3.53115e-05
4 *158:27 *1156:A 5.67058e-05
*RES
1 *1393:X *1156:A 47.5743 
*END

*D_NET *297 0.000430262
*CONN
*I *1164:A I *D sky130_fd_sc_hd__or2_2
*I *1394:X O *D sky130_fd_sc_hd__dlygate4sd3_1
*CAP
1 *1164:A 0
2 *1394:X 0.000129
3 *297:10 0.000129
4 rx_data[4] *297:10 3.56433e-05
5 *10:8 *297:10 9.84794e-05
6 *158:31 *297:10 3.81391e-05
*RES
1 *1394:X *297:10 40.6514 
2 *297:10 *1164:A 38 
*END

*D_NET *298 0.000620157
*CONN
*I *1136:A1 I *D sky130_fd_sc_hd__o21ai_2
*I *1395:X O *D sky130_fd_sc_hd__dlygate4sd3_1
*CAP
1 *1136:A1 4.54914e-05
2 *1395:X 6.50467e-05
3 *298:8 0.000110538
4 *298:8 *1119:B 0.000138727
5 *1139:A_N *1136:A1 0.000139346
6 *133:24 *298:8 6.68793e-05
7 *137:10 *1136:A1 5.41288e-05
*RES
1 *1395:X *298:8 39.9057 
2 *298:8 *1136:A1 39.5743 
*END

*D_NET *299 0.000610261
*CONN
*I *1130:A1 I *D sky130_fd_sc_hd__o21ai_2
*I *1396:X O *D sky130_fd_sc_hd__dlygate4sd3_1
*CAP
1 *1130:A1 0.000141475
2 *1396:X 8.60428e-05
3 *299:8 0.000227518
4 *1130:A1 *1121:C 2.02872e-05
5 *1130:A1 *351:43 5.50106e-05
6 *299:8 *341:8 6.79467e-05
7 *299:8 *352:38 1.19796e-05
8 *242:10 *299:8 0
*RES
1 *1396:X *299:8 39.9057 
2 *299:8 *1130:A1 40.5271 
*END

*D_NET *300 0.00726149
*CONN
*I *1151:A1 I *D sky130_fd_sc_hd__o2111a_2
*I *1112:A2 I *D sky130_fd_sc_hd__a31o_2
*I *1106:A1 I *D sky130_fd_sc_hd__a21oi_2
*I *1074:A I *D sky130_fd_sc_hd__inv_2
*I *1397:X O *D sky130_fd_sc_hd__dlygate4sd3_1
*CAP
1 *1151:A1 0.000811804
2 *1112:A2 0
3 *1106:A1 0
4 *1074:A 0
5 *1397:X 0
6 *300:42 0.00151808
7 *300:18 0.000350061
8 *300:8 0.000478026
9 *300:4 0.000834236
10 *1151:A1 *1123:B 5.50049e-05
11 *1151:A1 *370:60 4.50607e-05
12 *300:42 *1111:B2 6.3212e-05
13 *300:42 *367:14 0.000230604
14 *300:42 *368:27 0.000105117
15 *300:42 *370:26 0.000332622
16 *1106:A2 *300:8 7.84431e-05
17 *1106:A2 *300:18 0
18 *1107:A *300:18 0
19 *1107:B *300:18 5.50106e-05
20 *1110:A2 *300:18 0
21 *43:16 *1151:A1 0.00073928
22 *115:24 *300:42 0.000357057
23 *117:20 *300:42 4.03752e-05
24 *125:12 *1151:A1 3.91386e-05
25 *126:14 *300:42 0.000151153
26 *127:14 *300:8 5.67058e-05
27 *127:14 *300:42 0.000274078
28 *130:10 *300:42 4.5051e-05
29 *248:33 *300:18 0.000418491
30 *266:18 *300:18 1.01436e-05
31 *266:38 *1151:A1 1.51884e-05
32 *266:44 *300:42 1.14452e-05
33 *266:59 *1151:A1 0.00014611
*RES
1 *1397:X *300:4 23 
2 *300:4 *300:8 3.02429 
3 *300:8 *300:18 37.0221 
4 *300:18 *1074:A 23 
5 *300:8 *1106:A1 23 
6 *300:4 *300:42 49.5129 
7 *300:42 *1112:A2 23 
8 *300:42 *1151:A1 40.4829 
*END

*D_NET *301 0.000317298
*CONN
*I *1253:B1 I *D sky130_fd_sc_hd__a21oi_2
*I *1398:X O *D sky130_fd_sc_hd__dlygate4sd3_1
*CAP
1 *1253:B1 0
2 *1398:X 4.79958e-05
3 *301:8 4.79958e-05
4 *301:8 *385:12 1.47563e-05
5 *220:40 *301:8 2.95125e-05
6 *222:8 *301:8 8.85189e-05
7 *223:10 *301:8 8.85189e-05
8 *239:73 *301:8 0
*RES
1 *1398:X *301:8 39.9057 
2 *301:8 *1253:B1 38 
*END

*D_NET *302 0.000378583
*CONN
*I *1332:D I *D sky130_fd_sc_hd__dfxtp_2
*I *1399:X O *D sky130_fd_sc_hd__dlygate4sd3_1
*CAP
1 *1332:D 1.31802e-05
2 *1399:X 9.01584e-05
3 *302:8 0.000103339
4 *100:12 *302:8 0.000171906
5 *244:85 *302:8 0
*RES
1 *1399:X *302:8 40.2579 
2 *302:8 *1332:D 38.1916 
*END

*D_NET *303 0.00350402
*CONN
*I *1273:A1 I *D sky130_fd_sc_hd__o311a_2
*I *1440:X O *D sky130_fd_sc_hd__clkdlybuf4s25_1
*CAP
1 *1273:A1 0
2 *1440:X 0.000478931
3 *303:20 0.000494304
4 *303:10 0.000973235
5 *1281:A3 *303:10 0
6 *91:10 *303:10 6.16643e-05
7 *102:88 *303:10 0
8 *102:92 *303:10 0.000183733
9 *102:100 *303:10 0
10 *102:100 *303:20 0.000334425
11 *249:10 *303:20 0.000102389
12 *281:14 *303:20 0.000875336
*RES
1 *1440:X *303:10 45.6021 
2 *303:10 *303:20 29.6243 
3 *303:20 *1273:A1 23 
*END

*D_NET *304 0.000534089
*CONN
*I *1142:A1 I *D sky130_fd_sc_hd__o21ai_2
*I *1400:X O *D sky130_fd_sc_hd__dlygate4sd3_1
*CAP
1 *1142:A1 0
2 *1400:X 0.000165056
3 *304:10 0.000165056
4 *304:10 *348:14 5.50106e-05
5 *1142:B1 *304:10 1.02387e-05
6 *134:12 *304:10 0
7 *152:10 *304:10 0.000138727
*RES
1 *1400:X *304:10 40.8793 
2 *304:10 *1142:A1 38 
*END

*D_NET *305 0.000752959
*CONN
*I *1216:B I *D sky130_fd_sc_hd__nand2b_2
*I *1401:X O *D sky130_fd_sc_hd__dlygate4sd3_1
*CAP
1 *1216:B 0
2 *1401:X 0.000190162
3 *305:6 0.000190162
4 *305:6 *375:39 0.00023068
5 *305:6 *375:45 0.000141954
*RES
1 *1401:X *305:6 27.9093 
2 *305:6 *1216:B 23 
*END

*D_NET *306 0.00082843
*CONN
*I *1319:D I *D sky130_fd_sc_hd__dfxtp_2
*I *1402:X O *D sky130_fd_sc_hd__dlygate4sd3_1
*CAP
1 *1319:D 0.000123828
2 *1402:X 0.000196487
3 *306:8 0.000320316
4 *306:8 *1210:C 0.000164392
5 *193:8 *306:8 2.34077e-05
*RES
1 *1402:X *306:8 42.3707 
2 *306:8 *1319:D 40.0973 
*END

*D_NET *307 0.0040907
*CONN
*I *1113:A I *D sky130_fd_sc_hd__nand2_2
*I *1071:A I *D sky130_fd_sc_hd__inv_2
*I *1403:X O *D sky130_fd_sc_hd__dlygate4sd3_1
*CAP
1 *1113:A 0
2 *1071:A 0
3 *1403:X 0.000115371
4 *307:27 0.000823726
5 *307:12 0.000177504
6 *307:6 0.0011166
7 *307:6 *340:19 7.44257e-05
8 *307:27 *1114:C 2.18409e-05
9 *307:27 *340:19 0.000301216
10 *307:27 *340:43 0.00030894
11 *307:27 *340:49 0.000382574
12 *1148:B *307:27 5.50049e-05
13 *1150:C1 *307:27 4.34973e-05
14 *1292:D *307:27 1.64354e-05
15 *40:10 *307:12 3.70094e-05
16 *115:8 *307:12 0
17 *116:18 *307:27 0.000380342
18 *122:10 *307:27 5.3304e-05
19 *142:38 *307:27 4.21378e-05
20 *243:10 *307:12 4.43717e-05
21 *243:14 *307:12 9.63918e-05
*RES
1 *1403:X *307:6 24.5743 
2 *307:6 *307:12 34.0186 
3 *307:12 *1071:A 23 
4 *307:6 *307:27 46.7993 
5 *307:27 *1113:A 23 
*END

*D_NET *308 0.000429096
*CONN
*I *1294:D I *D sky130_fd_sc_hd__dfxtp_2
*I *1404:X O *D sky130_fd_sc_hd__dlygate4sd3_1
*CAP
1 *1294:D 9.19018e-05
2 *1404:X 0.000122646
3 *308:8 0.000214548
4 *308:8 *1152:A1 0
5 *308:8 *368:27 0
*RES
1 *1404:X *308:8 40.2579 
2 *308:8 *1294:D 39.6209 
*END

*D_NET *309 0.000119082
*CONN
*I *1262:A1 I *D sky130_fd_sc_hd__o21ba_2
*I *1405:X O *D sky130_fd_sc_hd__dlygate4sd3_1
*CAP
1 *1262:A1 5.68545e-05
2 *1405:X 5.68545e-05
3 *261:10 *1262:A1 5.37348e-06
*RES
1 *1405:X *1262:A1 47.0979 
*END

*D_NET *310 0.00181341
*CONN
*I *1245:A I *D sky130_fd_sc_hd__nand3_2
*I *1243:A1 I *D sky130_fd_sc_hd__o21ba_2
*I *1406:X O *D sky130_fd_sc_hd__dlygate4sd3_1
*CAP
1 *1245:A 0.000139456
2 *1243:A1 4.2635e-05
3 *1406:X 0.000380685
4 *310:12 0.000182091
5 *310:10 0.000380685
6 *1243:A2 *1243:A1 0.000102389
7 *1243:A2 *1245:A 5.54987e-05
8 *1246:C *1245:A 0.000106277
9 *76:8 *310:10 0
10 *195:20 *310:10 0.000112245
11 *196:18 *310:10 0
12 *213:45 *310:10 5.55172e-05
13 *216:10 *310:10 0.000255929
14 *239:35 *310:10 0
*RES
1 *1406:X *310:10 46.1614 
2 *310:10 *310:12 15 
3 *310:12 *1243:A1 24.0979 
4 *310:12 *1245:A 26.5007 
*END

*D_NET *311 0.00134255
*CONN
*I *1104:B I *D sky130_fd_sc_hd__nand2b_2
*I *1407:X O *D sky130_fd_sc_hd__dlygate4sd3_1
*CAP
1 *1104:B 0.000191584
2 *1407:X 0.000191729
3 *311:10 0.000383312
4 *311:10 *365:25 0
5 *1345:D *1104:B 1.74843e-05
6 *127:14 *311:10 0.000149279
7 *244:91 *1104:B 0.00014196
8 *266:12 *1104:B 0.000267201
*RES
1 *1407:X *311:10 41.48 
2 *311:10 *1104:B 43.5514 
*END

*D_NET *312 0.00154502
*CONN
*I *1278:A I *D sky130_fd_sc_hd__or2_2
*I *1408:X O *D sky130_fd_sc_hd__dlygate4sd3_1
*CAP
1 *1278:A 1.08631e-05
2 *1408:X 0.000406818
3 *312:10 0.000417681
4 *312:10 *1081:A3 1.21972e-05
5 *312:10 *316:10 7.93983e-05
6 *1272:B *312:10 3.20613e-06
7 *1279:B1 *312:10 0.000148688
8 *219:10 *312:10 3.81419e-05
9 *237:8 *312:10 0.000316308
10 *265:108 *1278:A 5.50106e-05
11 *268:79 *1278:A 5.67058e-05
*RES
1 *1408:X *312:10 45.8507 
2 *312:10 *1278:A 38.6214 
*END

*D_NET *313 0.000609146
*CONN
*I *1276:A I *D sky130_fd_sc_hd__or2_2
*I *1409:X O *D sky130_fd_sc_hd__dlygate4sd3_1
*CAP
1 *1276:A 0
2 *1409:X 0.00017149
3 *313:10 0.00017149
4 *102:57 *313:10 9.65e-05
5 *219:12 *313:10 0.000169665
6 *268:83 *313:10 0
*RES
1 *1409:X *313:10 41.3557 
2 *313:10 *1276:A 38 
*END

*D_NET *314 0.00167166
*CONN
*I *1275:A1 I *D sky130_fd_sc_hd__o311a_2
*I *1441:X O *D sky130_fd_sc_hd__clkdlybuf4s25_1
*CAP
1 *1275:A1 0
2 *1441:X 0.000379455
3 *314:10 0.000379455
4 *21:15 *314:10 0.000182832
5 *25:13 *314:10 9.53554e-05
6 *88:10 *314:10 0.000111852
7 *102:8 *314:10 1.14452e-05
8 *102:29 *314:10 0.000272383
9 *250:10 *314:10 0.000231126
10 *265:54 *314:10 7.75329e-06
*RES
1 *1441:X *314:10 48.4607 
2 *314:10 *1275:A1 38 
*END

*D_NET *315 0.000695706
*CONN
*I *1274:A I *D sky130_fd_sc_hd__or2_2
*I *1410:X O *D sky130_fd_sc_hd__dlygate4sd3_1
*CAP
1 *1274:A 2.37248e-05
2 *1410:X 0.000140442
3 *315:10 0.000164167
4 *315:10 *393:8 1.05235e-05
5 *1274:B *1274:A 5.67058e-05
6 *1275:C1 *1274:A 0.000141954
7 *1341:CLK *1274:A 4.95081e-05
8 *89:8 *315:10 0.000108681
9 *102:25 *315:10 0
*RES
1 *1410:X *315:10 40.175 
2 *315:10 *1274:A 39.5743 
*END

*D_NET *316 0.000500401
*CONN
*I *1280:A I *D sky130_fd_sc_hd__or2_2
*I *1411:X O *D sky130_fd_sc_hd__dlygate4sd3_1
*CAP
1 *1280:A 0
2 *1411:X 0.000116909
3 *316:10 0.000116909
4 *316:10 *1081:A3 1.90592e-05
5 *1272:B *316:10 0.000168127
6 *312:10 *316:10 7.93983e-05
*RES
1 *1411:X *316:10 40.8793 
2 *316:10 *1280:A 38 
*END

*D_NET *317 0.00110358
*CONN
*I *1272:A I *D sky130_fd_sc_hd__or2_2
*I *1412:X O *D sky130_fd_sc_hd__dlygate4sd3_1
*CAP
1 *1272:A 0
2 *1412:X 0.000348263
3 *317:10 0.000348263
4 *1281:A1 *317:10 0.000199369
5 *19:11 *317:10 3.22465e-05
6 *20:11 *317:10 1.03955e-05
7 *24:13 *317:10 0.000165044
8 *249:10 *317:10 0
*RES
1 *1412:X *317:10 45.1671 
2 *317:10 *1272:A 38 
*END

*D_NET *318 0.00100126
*CONN
*I *1070:A I *D sky130_fd_sc_hd__inv_2
*I *1247:B1 I *D sky130_fd_sc_hd__a31o_2
*I *1413:X O *D sky130_fd_sc_hd__dlygate4sd3_1
*CAP
1 *1070:A 0
2 *1247:B1 0.000291061
3 *1413:X 0.000165156
4 *318:10 0.000456218
5 *1247:B1 *1413:A 0
6 *1247:B1 *372:14 6.17437e-06
7 *1247:B1 *374:8 8.26478e-05
8 *318:10 *1413:A 0
9 *318:10 *372:14 0
*RES
1 *1413:X *318:10 40.5271 
2 *318:10 *1247:B1 43.8414 
3 *318:10 *1070:A 38 
*END

*D_NET *319 0.00039437
*CONN
*I *1330:D I *D sky130_fd_sc_hd__dfxtp_2
*I *1414:X O *D sky130_fd_sc_hd__dlygate4sd3_1
*CAP
1 *1330:D 1.3026e-05
2 *1414:X 0.000155455
3 *319:10 0.000168481
4 *319:10 *1413:A 5.7409e-05
*RES
1 *1414:X *319:10 40.8793 
2 *319:10 *1330:D 38.1916 
*END

*D_NET *320 0.00125927
*CONN
*I *1266:A I *D sky130_fd_sc_hd__or2_2
*I *1415:X O *D sky130_fd_sc_hd__dlygate4sd3_1
*CAP
1 *1266:A 4.73495e-05
2 *1415:X 0.000222799
3 *320:10 0.000270148
4 *1266:A *1270:A 0.000103637
5 *1316:CLK *1266:A 0.000143655
6 *3:22 *320:10 0
7 *231:8 *320:10 9.32422e-05
8 *252:18 *320:10 2.45549e-06
9 *252:27 *320:10 0.000375989
*RES
1 *1415:X *320:10 43.6964 
2 *320:10 *1266:A 40.0507 
*END

*D_NET *321 0.00222663
*CONN
*I *1268:A I *D sky130_fd_sc_hd__or2_2
*I *1416:X O *D sky130_fd_sc_hd__dlygate4sd3_1
*CAP
1 *1268:A 0.000426843
2 *1416:X 2.82203e-05
3 *321:8 0.000455063
4 *1267:A3 *1268:A 4.18957e-05
5 *1269:A3 *1268:A 0.000254407
6 *219:67 *1268:A 0
7 *232:8 *1268:A 0.000162422
8 *245:14 *1268:A 0.000187707
9 *245:14 *321:8 2.93747e-05
10 *245:38 *1268:A 0.000139647
11 *245:55 *1268:A 0.000501049
12 *270:14 *1268:A 0
*RES
1 *1416:X *321:8 38.6214 
2 *321:8 *1268:A 49.7657 
*END

*D_NET *322 0.00270579
*CONN
*I *1270:A I *D sky130_fd_sc_hd__or2_2
*I *1417:X O *D sky130_fd_sc_hd__dlygate4sd3_1
*CAP
1 *1270:A 0.000555239
2 *1417:X 0.000285555
3 *322:8 0.000840793
4 *1270:A *391:16 5.64664e-05
5 *1266:A *1270:A 0.000103637
6 *1266:B *1270:A 1.32939e-05
7 *1316:CLK *1270:A 1.69169e-05
8 *1316:D *1270:A 9.95543e-06
9 *50:8 *322:8 0
10 *233:10 *1270:A 0.000178517
11 *252:27 *322:8 0.000508926
12 *268:46 *322:8 0.000136486
*RES
1 *1417:X *322:8 44.8357 
2 *322:8 *1270:A 45.7886 
*END

*D_NET *323 0.000253003
*CONN
*I *1111:B2 I *D sky130_fd_sc_hd__a221o_2
*I *1418:X O *D sky130_fd_sc_hd__dlygate4sd3_1
*CAP
1 *1111:B2 4.30188e-05
2 *1418:X 4.30188e-05
3 *115:24 *1111:B2 0
4 *126:14 *1111:B2 0.000103754
5 *300:42 *1111:B2 6.3212e-05
*RES
1 *1418:X *1111:B2 47.7452 
*END

*D_NET *324 0.000347932
*CONN
*I *1252:A1 I *D sky130_fd_sc_hd__a211oi_2
*I *1419:X O *D sky130_fd_sc_hd__dlygate4sd3_1
*CAP
1 *1252:A1 0.000170879
2 *1419:X 0.000170879
3 *79:10 *1252:A1 6.17437e-06
*RES
1 *1419:X *1252:A1 49.0036 
*END

*D_NET *325 0.0012628
*CONN
*I *1277:A1 I *D sky130_fd_sc_hd__o311a_2
*I *1442:X O *D sky130_fd_sc_hd__clkdlybuf4s25_1
*CAP
1 *1277:A1 5.72275e-05
2 *1442:X 0.000382061
3 *325:10 0.000439289
4 *1279:A2 *325:10 0
5 *1454:A *325:10 9.28088e-05
6 *16:10 *325:10 1.39431e-05
7 *102:29 *1277:A1 5.50049e-05
8 *102:35 *325:10 0.000167452
9 *102:44 *1277:A1 5.50106e-05
*RES
1 *1442:X *325:10 45.1671 
2 *325:10 *1277:A1 39.0979 
*END

*D_NET *326 0.00125753
*CONN
*I *1150:A1 I *D sky130_fd_sc_hd__o311a_2
*I *1420:X O *D sky130_fd_sc_hd__dlygate4sd3_1
*CAP
1 *1150:A1 0
2 *1420:X 0.000380346
3 *326:10 0.000380346
4 *326:10 *1150:A2 0
5 *326:10 *369:27 1.02387e-05
6 *326:10 *369:44 1.27508e-05
7 *326:10 *370:60 0.000136614
8 *1124:B1 *326:10 0
9 *1153:D *326:10 2.36844e-05
10 *43:8 *326:10 7.28526e-05
11 *115:35 *326:10 0.000101326
12 *141:10 *326:10 0
13 *271:19 *326:10 8.91468e-07
14 *271:25 *326:10 0.000135547
15 *271:34 *326:10 2.92911e-06
*RES
1 *1420:X *326:10 46.1614 
2 *326:10 *1150:A1 38 
*END

*D_NET *327 0.000288511
*CONN
*I *1224:A I *D sky130_fd_sc_hd__nand2_2
*I *1421:X O *D sky130_fd_sc_hd__dlygate4sd3_1
*CAP
1 *1224:A 0.000112781
2 *1421:X 0.000112781
3 *1224:B *1224:A 6.29487e-05
*RES
1 *1421:X *1224:A 48.5479 
*END

*D_NET *328 0.00170096
*CONN
*I *1113:B I *D sky130_fd_sc_hd__nand2_2
*I *1422:X O *D sky130_fd_sc_hd__dlygate4sd3_1
*CAP
1 *1113:B 4.96677e-05
2 *1422:X 0.000483247
3 *328:10 0.000532915
4 *328:10 *344:70 0
5 *1148:B *1113:B 0.000137651
6 *1150:C1 *1113:B 2.02872e-05
7 *1293:CLK *328:10 0.000161121
8 *41:10 *328:10 2.72055e-05
9 *97:38 *1113:B 9.67842e-05
10 *116:29 *328:10 0
11 *243:71 *328:10 0.000192087
*RES
1 *1422:X *328:10 46.6379 
2 *328:10 *1113:B 39.5743 
*END

*D_NET *329 0.000297708
*CONN
*I *1234:A I *D sky130_fd_sc_hd__nand2_2
*I *1423:X O *D sky130_fd_sc_hd__dlygate4sd3_1
*CAP
1 *1234:A 6.60543e-05
2 *1423:X 6.60543e-05
3 *1235:C *1234:A 0
4 *208:12 *1234:A 7.88828e-05
5 *208:54 *1234:A 5.3304e-05
6 *263:23 *1234:A 3.34129e-05
*RES
1 *1423:X *1234:A 48.0714 
*END

*D_NET *330 0.000337244
*CONN
*I *1067:A I *D sky130_fd_sc_hd__inv_2
*I *1424:X O *D sky130_fd_sc_hd__dlygate4sd3_1
*CAP
1 *1067:A 0
2 *1424:X 0.000122391
3 *330:8 0.000122391
4 *330:8 *388:12 6.16439e-05
5 *1261:B1 *330:8 4.6318e-06
6 *230:10 *330:8 0
7 *273:10 *330:8 2.61862e-05
*RES
1 *1424:X *330:8 40.2579 
2 *330:8 *1067:A 38 
*END

*D_NET *331 0.000321488
*CONN
*I *1222:B1 I *D sky130_fd_sc_hd__a31o_2
*I *1425:X O *D sky130_fd_sc_hd__dlygate4sd3_1
*CAP
1 *1222:B1 1.70892e-05
2 *1425:X 1.70892e-05
3 *1222:B1 *1209:D_N 0.000143655
4 *1222:B1 *376:31 0.000143655
*RES
1 *1425:X *1222:B1 47.5743 
*END

*D_NET *332 0.00136092
*CONN
*I *1228:B1 I *D sky130_fd_sc_hd__a21o_2
*I *1426:X O *D sky130_fd_sc_hd__dlygate4sd3_1
*CAP
1 *1228:B1 5.46608e-05
2 *1426:X 0.000322493
3 *332:10 0.000377154
4 *1228:B1 *1228:A1 9.88259e-05
5 *332:10 *378:65 2.93335e-05
6 *332:10 *379:10 4.08537e-05
7 *201:10 *332:10 0
8 *201:14 *1228:B1 0.000146195
9 *201:28 *1228:B1 1.71761e-05
10 *202:10 *332:10 0
11 *263:61 *1228:B1 0.000274229
*RES
1 *1426:X *332:10 43.6964 
2 *332:10 *1228:B1 41.0036 
*END

*D_NET *333 0.000357803
*CONN
*I *1218:C I *D sky130_fd_sc_hd__nand3_2
*I *1427:X O *D sky130_fd_sc_hd__dlygate4sd3_1
*CAP
1 *1218:C 6.80978e-05
2 *1427:X 0.000110804
3 *333:8 0.000178902
4 *199:8 *333:8 0
5 *242:61 *333:8 0
*RES
1 *1427:X *333:8 39.9057 
2 *333:8 *1218:C 39.0979 
*END

*D_NET *334 0.00157835
*CONN
*I *1220:B I *D sky130_fd_sc_hd__and3_2
*I *1428:X O *D sky130_fd_sc_hd__dlygate4sd3_1
*CAP
1 *1220:B 0.000129262
2 *1428:X 0.000301713
3 *334:8 0.000430974
4 *1220:B *335:10 0.000182832
5 *334:8 *371:21 0
6 *200:14 *334:8 0.000533569
*RES
1 *1428:X *334:8 45.1879 
2 *334:8 *1220:B 40.5479 
*END

*D_NET *335 0.000858784
*CONN
*I *1215:A_N I *D sky130_fd_sc_hd__and2b_2
*I *1429:X O *D sky130_fd_sc_hd__dlygate4sd3_1
*CAP
1 *1215:A_N 0
2 *1429:X 0.000256621
3 *335:10 0.000256621
4 *1220:B *335:10 0.000182832
5 *68:8 *335:10 6.93449e-05
6 *200:14 *335:10 9.33642e-05
7 *263:74 *335:10 0
*RES
1 *1429:X *335:10 43.6136 
2 *335:10 *1215:A_N 38 
*END

*D_NET *336 0.000982693
*CONN
*I *1279:A1 I *D sky130_fd_sc_hd__o311a_2
*I *1443:X O *D sky130_fd_sc_hd__clkdlybuf4s25_1
*CAP
1 *1279:A1 0
2 *1443:X 0.000300795
3 *336:10 0.000300795
4 *16:10 *336:10 0
5 *90:8 *336:10 5.56203e-05
6 *102:88 *336:10 0.000177914
7 *245:71 *336:10 0.000147567
*RES
1 *1443:X *336:10 44.7736 
2 *336:10 *1279:A1 38 
*END

*D_NET *337 0.00109343
*CONN
*I *1099:A1 I *D sky130_fd_sc_hd__a31o_2
*I *1430:X O *D sky130_fd_sc_hd__dlygate4sd3_1
*CAP
1 *1099:A1 0
2 *1430:X 0.000281858
3 *337:10 0.000281858
4 *337:10 *1430:A 5.50049e-05
5 *1099:A3 *337:10 0.000207498
6 *1108:B *337:10 0.000169674
7 *29:8 *337:10 0
8 *246:56 *337:10 8.62876e-05
9 *266:98 *337:10 1.12487e-05
10 *271:12 *337:10 0
11 *272:27 *337:10 0
*RES
1 *1430:X *337:10 44.4007 
2 *337:10 *1099:A1 38 
*END

*D_NET *338 0.000974717
*CONN
*I *1236:B1 I *D sky130_fd_sc_hd__a21o_2
*I *1431:X O *D sky130_fd_sc_hd__dlygate4sd3_1
*CAP
1 *1236:B1 0
2 *1431:X 0.000347693
3 *338:10 0.000347693
4 *208:45 *338:10 3.7122e-06
5 *211:10 *338:10 0.000111106
6 *263:8 *338:10 0.000139882
7 *263:113 *338:10 2.46304e-05
*RES
1 *1431:X *338:10 43.3857 
2 *338:10 *1236:B1 38 
*END

*D_NET *339 0.00183736
*CONN
*I *1122:A I *D sky130_fd_sc_hd__nand2_2
*I *1432:X O *D sky130_fd_sc_hd__dlygate4sd3_1
*CAP
1 *1122:A 0.000292017
2 *1432:X 0.000282052
3 *339:10 0.000574069
4 *339:10 *343:23 5.82853e-05
5 *1122:B *1122:A 0.000141954
6 *1129:A *1122:A 7.27182e-05
7 *1129:B *1122:A 2.02872e-05
8 *31:10 *339:10 0.000191864
9 *124:28 *339:10 1.86869e-05
10 *145:8 *339:10 0
11 *243:40 *339:10 0
12 *264:22 *1122:A 0.000185428
*RES
1 *1432:X *339:10 43.3443 
2 *339:10 *1122:A 44.8357 
*END

*D_NET *340 0.00499591
*CONN
*I *1114:A I *D sky130_fd_sc_hd__and3_2
*I *1100:A I *D sky130_fd_sc_hd__or2_2
*I *1091:D I *D sky130_fd_sc_hd__and4bb_2
*I *1115:A I *D sky130_fd_sc_hd__and4_2
*I *1403:A I *D sky130_fd_sc_hd__dlygate4sd3_1
*I *1294:Q O *D sky130_fd_sc_hd__dfxtp_2
*CAP
1 *1114:A 0
2 *1100:A 0
3 *1091:D 0
4 *1115:A 0.00020569
5 *1403:A 0
6 *1294:Q 5.08247e-05
7 *340:49 0.000125142
8 *340:43 0.000221905
9 *340:23 0.000410524
10 *340:19 0.000813133
11 *340:10 0.000511535
12 *340:8 5.08247e-05
13 *1115:A *1115:B 0.000250627
14 *1115:A *1115:C 0.000138488
15 *340:19 *345:6 6.17437e-06
16 *340:19 *345:32 0
17 *340:23 *1115:C 1.13812e-05
18 *340:23 *345:10 0.000182827
19 *340:23 *369:50 0
20 *340:43 *1114:C 0.000138444
21 *340:43 *345:6 1.21972e-05
22 *340:43 *345:32 4.94192e-05
23 *340:49 *344:16 0.000407208
24 *1292:D *340:19 1.74843e-05
25 *116:18 *340:49 1.12487e-05
26 *117:20 *340:8 0.00014411
27 *124:18 *340:19 9.91798e-05
28 *239:124 *340:8 7.03869e-05
29 *307:6 *340:19 7.44257e-05
30 *307:27 *340:19 0.000301216
31 *307:27 *340:43 0.00030894
32 *307:27 *340:49 0.000382574
*RES
1 *1294:Q *340:8 39.9057 
2 *340:8 *340:10 15 
3 *340:10 *1403:A 23 
4 *340:10 *340:19 11.6 
5 *340:19 *340:23 18.6664 
6 *340:23 *1115:A 42.5364 
7 *340:23 *1091:D 38 
8 *340:19 *340:43 3.48 
9 *340:43 *340:49 35.4271 
10 *340:49 *1100:A 23 
11 *340:43 *1114:A 23 
*END

*D_NET *341 0.00195593
*CONN
*I *1087:B I *D sky130_fd_sc_hd__nor3_2
*I *1088:B I *D sky130_fd_sc_hd__or3_2
*I *1396:A I *D sky130_fd_sc_hd__dlygate4sd3_1
*I *1121:C I *D sky130_fd_sc_hd__and4_2
*I *1284:Q O *D sky130_fd_sc_hd__dfxtp_2
*CAP
1 *1087:B 0.000122725
2 *1088:B 5.45397e-05
3 *1396:A 9.94829e-05
4 *1121:C 4.75988e-05
5 *1284:Q 0.000333854
6 *341:39 0.000335448
7 *341:26 0.000496762
8 *341:8 0.000142357
9 *1121:C *351:43 5.50106e-05
10 *341:8 *351:43 3.70187e-05
11 *341:8 *352:38 0
12 *1130:A1 *1121:C 2.02872e-05
13 *1130:A2 *341:8 0
14 *137:56 *1121:C 5.50106e-05
15 *139:8 *341:8 8.78864e-05
16 *146:10 *341:8 0
17 *264:39 *341:8 0
18 *299:8 *341:8 6.79467e-05
*RES
1 *1284:Q *341:8 40.61 
2 *341:8 *1121:C 39.0979 
3 *1284:Q *341:26 41.0036 
4 *341:26 *1396:A 39.9471 
5 *341:26 *341:39 2.96214 
6 *341:39 *1088:B 38.6214 
7 *341:39 *1087:B 40.2579 
*END

*D_NET *342 0.00446028
*CONN
*I *1087:A I *D sky130_fd_sc_hd__nor3_2
*I *1432:A I *D sky130_fd_sc_hd__dlygate4sd3_1
*I *1088:A I *D sky130_fd_sc_hd__or3_2
*I *1126:A1 I *D sky130_fd_sc_hd__a31o_2
*I *1128:A I *D sky130_fd_sc_hd__or2_2
*I *1283:Q O *D sky130_fd_sc_hd__dfxtp_2
*CAP
1 *1087:A 1.84456e-05
2 *1432:A 0.00024267
3 *1088:A 0.000302623
4 *1126:A1 3.95839e-05
5 *1128:A 5.13029e-05
6 *1283:Q 0.00052804
7 *342:21 0.000403744
8 *342:19 0.00041128
9 *342:8 0.000704862
10 *1087:A *1087:C 5.82853e-05
11 *1088:A *343:31 0.000100486
12 *1432:A *343:23 0.000221529
13 *1122:B *342:19 2.35118e-06
14 *1283:D *342:8 1.79713e-05
15 *1330:CLK *1128:A 5.45541e-05
16 *1330:CLK *342:8 8.48502e-06
17 *30:10 *342:21 0.000168524
18 *139:12 *1088:A 5.5792e-05
19 *139:16 *1088:A 0.000162571
20 *139:22 *1126:A1 1.85495e-05
21 *139:22 *342:19 4.91627e-05
22 *139:22 *342:21 4.16051e-06
23 *243:20 *342:8 0.000175083
24 *243:24 *342:8 0.000189861
25 *264:33 *342:19 0.000151026
26 *264:39 *1126:A1 8.87259e-05
27 *264:39 *342:19 3.67392e-05
28 *264:39 *342:21 0.000193873
*RES
1 *1283:Q *342:8 31.265 
2 *342:8 *1128:A 24.0979 
3 *342:8 *342:19 17.61 
4 *342:19 *342:21 2.61 
5 *342:21 *1126:A1 39.2014 
6 *342:21 *1088:A 44.3386 
7 *342:19 *1432:A 42.9093 
8 *1432:A *1087:A 46.6214 
*END

*D_NET *343 0.00408687
*CONN
*I *1087:C I *D sky130_fd_sc_hd__nor3_2
*I *1088:C I *D sky130_fd_sc_hd__or3_2
*I *1380:A I *D sky130_fd_sc_hd__dlygate4sd3_1
*I *1282:Q O *D sky130_fd_sc_hd__dfxtp_2
*CAP
1 *1087:C 0.000222109
2 *1088:C 0
3 *1380:A 0
4 *1282:Q 0.000229759
5 *343:31 0.000244908
6 *343:23 0.00138035
7 *343:12 0.000115936
8 *343:6 0.00125902
9 *1087:A *1087:C 5.82853e-05
10 *1088:A *343:31 0.000100486
11 *1212:C *343:6 1.24298e-05
12 *1282:CLK *343:23 1.21972e-05
13 *1282:D *343:23 0.000167156
14 *1432:A *343:23 0.000221529
15 *139:8 *343:31 4.41821e-06
16 *339:10 *343:23 5.82853e-05
*RES
1 *1282:Q *343:6 26.0036 
2 *343:6 *343:12 31.9057 
3 *343:12 *1380:A 23 
4 *343:6 *343:23 13.6507 
5 *343:23 *343:31 34.7643 
6 *343:31 *1088:C 23 
7 *343:23 *1087:C 26.9771 
*END

*D_NET *344 0.00796813
*CONN
*I *1422:A I *D sky130_fd_sc_hd__dlygate4sd3_1
*I *1100:B I *D sky130_fd_sc_hd__or2_2
*I *1114:B I *D sky130_fd_sc_hd__and3_2
*I *1091:A_N I *D sky130_fd_sc_hd__and4bb_2
*I *1115:B I *D sky130_fd_sc_hd__and4_2
*I *1293:Q O *D sky130_fd_sc_hd__dfxtp_2
*CAP
1 *1422:A 0
2 *1100:B 3.00574e-05
3 *1114:B 0.000124192
4 *1091:A_N 0.000367467
5 *1115:B 0.000250849
6 *1293:Q 8.18224e-05
7 *344:70 0.000119792
8 *344:18 0.000709573
9 *344:16 0.00039859
10 *344:14 0.00105572
11 *344:6 0.00104414
12 *1091:A_N *1091:C 0.000312451
13 *1115:B *1115:C 7.64059e-06
14 *1115:B *1115:D 3.2277e-05
15 *1115:B *369:50 0.000215917
16 *344:14 *1150:A2 0
17 *344:14 *368:69 0
18 *344:14 *369:50 0.000203407
19 *344:16 *369:50 0.000525257
20 *344:18 *369:50 0.00020842
21 *1115:A *1115:B 0.000250627
22 *1150:C1 *1100:B 1.59094e-05
23 *1293:CLK *344:14 1.32302e-05
24 *1293:D *344:14 8.90341e-05
25 *97:6 *1114:B 7.15126e-05
26 *114:10 *1091:A_N 5.76359e-05
27 *116:10 *1115:B 0.000522704
28 *116:18 *344:14 5.01247e-05
29 *116:18 *344:16 5.58661e-05
30 *116:18 *344:18 9.90482e-05
31 *116:29 *344:14 8.83237e-05
32 *123:8 *1115:B 0.000184634
33 *123:8 *344:18 1.0092e-05
34 *133:6 *1115:B 2.95423e-05
35 *133:10 *1115:B 1.16551e-05
36 *133:77 *1115:B 1.57659e-05
37 *142:10 *344:14 0
38 *142:38 *1100:B 5.3304e-05
39 *178:8 *344:14 6.07611e-06
40 *243:65 *1091:A_N 0.000248254
41 *260:8 *344:70 0
42 *328:10 *344:70 0
43 *340:49 *344:16 0.000407208
*RES
1 *1293:Q *344:6 24.0979 
2 *344:6 *344:14 30.95 
3 *344:14 *344:16 7.18786 
4 *344:16 *344:18 2.96214 
5 *344:18 *1115:B 47.9429 
6 *344:18 *1091:A_N 45.3329 
7 *344:16 *1114:B 39.5743 
8 *344:14 *1100:B 38.6214 
9 *344:6 *344:70 31.9057 
10 *344:70 *1422:A 23 
*END

*D_NET *345 0.00183956
*CONN
*I *1114:C I *D sky130_fd_sc_hd__and3_2
*I *1072:A I *D sky130_fd_sc_hd__inv_2
*I *1091:B_N I *D sky130_fd_sc_hd__and4bb_2
*I *1115:C I *D sky130_fd_sc_hd__and4_2
*I *1292:Q O *D sky130_fd_sc_hd__dfxtp_2
*CAP
1 *1114:C 0.000121238
2 *1072:A 0
3 *1091:B_N 0
4 *1115:C 0.000145754
5 *1292:Q 4.7195e-05
6 *345:32 0.000233609
7 *345:10 0.000252493
8 *345:6 0.000266305
9 *1115:C *1115:D 1.35999e-05
10 *345:10 *369:50 0
11 *1115:A *1115:C 0.000138488
12 *1115:B *1115:C 7.64059e-06
13 *97:6 *1114:C 0.000178517
14 *97:38 *1114:C 1.24376e-05
15 *307:27 *1114:C 2.18409e-05
16 *340:19 *345:6 6.17437e-06
17 *340:19 *345:32 0
18 *340:23 *1115:C 1.13812e-05
19 *340:23 *345:10 0.000182827
20 *340:43 *1114:C 0.000138444
21 *340:43 *345:6 1.21972e-05
22 *340:43 *345:32 4.94192e-05
*RES
1 *1292:Q *345:6 23.6214 
2 *345:6 *345:10 17.61 
3 *345:10 *1115:C 40.5271 
4 *345:10 *1091:B_N 38 
5 *345:6 *345:32 2.42357 
6 *345:32 *1072:A 23 
7 *345:32 *1114:C 26.0243 
*END

*D_NET *346 0.00494523
*CONN
*I *1144:A I *D sky130_fd_sc_hd__nor2_2
*I *1101:B I *D sky130_fd_sc_hd__or3_2
*I *1146:A2 I *D sky130_fd_sc_hd__a32o_2
*I *1115:D I *D sky130_fd_sc_hd__and4_2
*I *1091:C I *D sky130_fd_sc_hd__and4bb_2
*I *1291:Q O *D sky130_fd_sc_hd__dfxtp_2
*CAP
1 *1144:A 0
2 *1101:B 7.78752e-05
3 *1146:A2 4.2143e-05
4 *1115:D 0.000255929
5 *1091:C 0.000299006
6 *1291:Q 0.000525319
7 *346:25 0.000391184
8 *346:21 0.000189798
9 *346:17 4.06924e-05
10 *346:8 0.000846207
11 *1146:A2 *369:50 5.00237e-05
12 *1091:A_N *1091:C 0.000312451
13 *1101:C *1101:B 4.05463e-05
14 *1101:C *346:25 5.75756e-06
15 *1115:B *1115:D 3.2277e-05
16 *1115:C *1115:D 1.35999e-05
17 *1146:A1 *1115:D 0.000145163
18 *1146:A1 *1146:A2 0.000186038
19 *1146:A1 *346:25 3.21291e-05
20 *1146:B1 *1146:A2 1.52529e-05
21 *1291:CLK *346:8 4.53082e-05
22 *1291:D *346:8 0.000192897
23 *133:6 *1115:D 5.5792e-05
24 *133:77 *1101:B 8.71386e-05
25 *133:77 *1115:D 0.000353322
26 *133:77 *1146:A2 4.21921e-05
27 *133:77 *346:25 0.000160125
28 *153:10 *346:8 5.5792e-05
29 *243:65 *1091:C 0.00029519
30 *243:65 *1101:B 2.93747e-05
31 *243:65 *346:8 7.34019e-05
32 *243:65 *346:21 5.3304e-05
*RES
1 *1291:Q *346:8 33.1707 
2 *346:8 *1091:C 29.815 
3 *346:8 *346:17 0.497143 
4 *346:17 *346:21 15.6214 
5 *346:21 *346:25 17.2579 
6 *346:25 *1115:D 28.8829 
7 *346:25 *1146:A2 25.0507 
8 *346:21 *1101:B 39.8229 
9 *346:17 *1144:A 23 
*END

*D_NET *347 0.00267976
*CONN
*I *1400:A I *D sky130_fd_sc_hd__dlygate4sd3_1
*I *1089:B I *D sky130_fd_sc_hd__nor4_2
*I *1116:A I *D sky130_fd_sc_hd__and2_2
*I *1090:B I *D sky130_fd_sc_hd__or4_2
*I *1117:B I *D sky130_fd_sc_hd__and2_2
*I *1290:Q O *D sky130_fd_sc_hd__dfxtp_2
*CAP
1 *1400:A 9.51575e-05
2 *1089:B 0
3 *1116:A 0.0003121
4 *1090:B 0
5 *1117:B 0
6 *1290:Q 0.000136202
7 *347:29 0.000469776
8 *347:23 0.000310298
9 *347:12 0.000173526
10 *347:10 0.000116061
11 *347:8 0.000136202
12 *1116:A *1090:C 1.24376e-05
13 *1116:A *1090:D 3.71251e-05
14 *1116:A *348:26 2.32101e-05
15 *1400:A *348:14 0.00021477
16 *347:12 *348:14 5.67058e-05
17 *347:23 *1089:D 2.02872e-05
18 *347:23 *348:14 2.86356e-05
19 *347:23 *348:16 0.00010018
20 *347:23 *348:26 9.84851e-05
21 *347:29 *1089:C 0.000111158
22 *347:29 *348:26 0.000194327
23 *347:29 *349:47 0
24 *347:29 *350:37 3.31127e-05
25 *113:8 *347:8 0
26 *133:10 *347:8 0
*RES
1 *1290:Q *347:8 40.2579 
2 *347:8 *347:10 15 
3 *347:10 *347:12 0.621429 
4 *347:12 *1117:B 23 
5 *347:12 *347:23 3.99786 
6 *347:23 *347:29 33.6664 
7 *347:29 *1090:B 23 
8 *347:29 *1116:A 28.4271 
9 *347:23 *1089:B 23 
10 *347:10 *1400:A 25.5271 
*END

*D_NET *348 0.00412527
*CONN
*I *1374:A I *D sky130_fd_sc_hd__dlygate4sd3_1
*I *1117:A I *D sky130_fd_sc_hd__and2_2
*I *1089:A I *D sky130_fd_sc_hd__nor4_2
*I *1090:A I *D sky130_fd_sc_hd__or4_2
*I *1289:Q O *D sky130_fd_sc_hd__dfxtp_2
*CAP
1 *1374:A 0
2 *1117:A 0
3 *1089:A 0
4 *1090:A 0
5 *1289:Q 8.1184e-05
6 *348:47 0.000119442
7 *348:26 0.000164556
8 *348:16 0.000188964
9 *348:14 0.00113126
10 *348:6 0.00130747
11 *348:16 *1089:D 4.17736e-05
12 *348:26 *1089:D 0.000140162
13 *348:26 *1090:C 5.50049e-05
14 *348:26 *349:47 1.19796e-05
15 *1116:A *348:26 2.32101e-05
16 *1289:D *348:14 5.92579e-05
17 *1400:A *348:14 0.00021477
18 *151:8 *348:47 0
19 *242:106 *348:14 5.2894e-05
20 *304:10 *348:14 5.50106e-05
21 *347:12 *348:14 5.67058e-05
22 *347:23 *348:14 2.86356e-05
23 *347:23 *348:16 0.00010018
24 *347:23 *348:26 9.84851e-05
25 *347:29 *348:26 0.000194327
*RES
1 *1289:Q *348:6 24.0979 
2 *348:6 *348:14 17.0064 
3 *348:14 *348:16 1.09786 
4 *348:16 *348:26 34.8057 
5 *348:26 *1090:A 23 
6 *348:16 *1089:A 23 
7 *348:14 *1117:A 23 
8 *348:6 *348:47 31.9057 
9 *348:47 *1374:A 23 
*END

*D_NET *349 0.00548212
*CONN
*I *1138:B1 I *D sky130_fd_sc_hd__a21o_2
*I *1118:A I *D sky130_fd_sc_hd__and3_2
*I *1089:D I *D sky130_fd_sc_hd__nor4_2
*I *1090:D I *D sky130_fd_sc_hd__or4_2
*I *1119:B I *D sky130_fd_sc_hd__and4_2
*I *1288:Q O *D sky130_fd_sc_hd__dfxtp_2
*CAP
1 *1138:B1 0
2 *1118:A 0
3 *1089:D 0.000375164
4 *1090:D 5.84618e-05
5 *1119:B 0.000457409
6 *1288:Q 0.000631688
7 *349:47 0.000641759
8 *349:26 0.000862695
9 *349:16 0.000411008
10 *349:12 0.000213856
11 *349:10 0.000631688
12 *1119:B *350:37 0
13 *349:47 *350:37 0
14 *1116:A *1090:D 3.71251e-05
15 *1119:D *1119:B 3.71369e-05
16 *1136:A2 *1119:B 0
17 *1136:B1 *1119:B 0
18 *1138:A1 *349:16 2.91168e-05
19 *1138:A2 *349:16 0.000228903
20 *1138:A2 *349:26 6.39268e-05
21 *1139:B *349:10 4.23714e-05
22 *1288:D *349:10 8.15899e-06
23 *133:10 *1089:D 0
24 *133:24 *1119:B 9.23553e-05
25 *133:24 *349:47 3.9185e-05
26 *135:8 *1089:D 0
27 *135:8 *349:47 0
28 *136:10 *1119:B 0
29 *136:10 *349:26 9.84851e-05
30 *150:10 *349:10 0.000111852
31 *264:92 *349:26 5.68453e-05
32 *298:8 *1119:B 0.000138727
33 *347:23 *1089:D 2.02872e-05
34 *347:29 *349:47 0
35 *348:16 *1089:D 4.17736e-05
36 *348:26 *1089:D 0.000140162
37 *348:26 *349:47 1.19796e-05
*RES
1 *1288:Q *349:10 46.7207 
2 *349:10 *349:12 15 
3 *349:12 *349:16 4.45357 
4 *349:16 *349:26 19.1429 
5 *349:26 *1119:B 47.1143 
6 *349:26 *349:47 4.01857 
7 *349:47 *1090:D 39.0979 
8 *349:47 *1089:D 44.3593 
9 *349:16 *1118:A 23 
10 *349:12 *1138:B1 23 
*END

*D_NET *350 0.00262853
*CONN
*I *1089:C I *D sky130_fd_sc_hd__nor4_2
*I *1090:C I *D sky130_fd_sc_hd__or4_2
*I *1395:A I *D sky130_fd_sc_hd__dlygate4sd3_1
*I *1119:A I *D sky130_fd_sc_hd__and4_2
*I *1287:Q O *D sky130_fd_sc_hd__dfxtp_2
*CAP
1 *1089:C 9.47303e-05
2 *1090:C 5.83843e-05
3 *1395:A 5.23898e-05
4 *1119:A 0
5 *1287:Q 0.000616604
6 *350:37 0.000563151
7 *350:12 0.00010106
8 *350:6 0.000360017
9 *1089:C *351:21 0
10 *1116:A *1090:C 1.24376e-05
11 *1119:B *350:37 0
12 *1119:D *350:12 6.7911e-05
13 *1136:B1 *350:37 0
14 *1139:B *350:12 0
15 *1288:CLK *1395:A 2.93845e-05
16 *1288:CLK *350:6 0.000164518
17 *1288:CLK *350:37 0.000126847
18 *113:8 *1089:C 0.000140958
19 *136:10 *350:37 4.08641e-05
20 *150:10 *350:12 0
21 *264:69 *1089:C 0
22 *264:69 *350:37 0
23 *347:29 *1089:C 0.000111158
24 *347:29 *350:37 3.31127e-05
25 *348:26 *1090:C 5.50049e-05
26 *349:47 *350:37 0
*RES
1 *1287:Q *350:6 26.48 
2 *350:6 *350:12 31.9057 
3 *350:12 *1119:A 23 
4 *350:6 *1395:A 24.1186 
5 *1287:Q *350:37 45.25 
6 *350:37 *1090:C 39.0979 
7 *350:37 *1089:C 40.9621 
*END

*D_NET *351 0.00339462
*CONN
*I *1086:B I *D sky130_fd_sc_hd__or2_2
*I *1085:B I *D sky130_fd_sc_hd__nor2_2
*I *1121:B I *D sky130_fd_sc_hd__and4_2
*I *1120:B I *D sky130_fd_sc_hd__and3_2
*I *1132:A1 I *D sky130_fd_sc_hd__a21o_2
*I *1384:A I *D sky130_fd_sc_hd__dlygate4sd3_1
*I *1286:Q O *D sky130_fd_sc_hd__dfxtp_2
*CAP
1 *1086:B 0
2 *1085:B 0
3 *1121:B 0
4 *1120:B 0
5 *1132:A1 6.7389e-05
6 *1384:A 4.56369e-05
7 *1286:Q 0.000110804
8 *351:43 0.000321167
9 *351:33 0.000489426
10 *351:25 0.000348849
11 *351:21 0.000266815
12 *351:8 0.000310054
13 *1132:A1 *352:10 6.07611e-06
14 *1132:A1 *352:25 8.16253e-05
15 *351:25 *1086:A 5.50049e-05
16 *351:25 *352:47 5.15963e-05
17 *351:33 *352:47 0.000368797
18 *351:43 *352:25 6.67868e-05
19 *1089:C *351:21 0
20 *1121:C *351:43 5.50106e-05
21 *1130:A1 *351:43 5.50106e-05
22 *1130:A2 *351:43 0
23 *113:8 *351:21 0
24 *137:37 *1132:A1 0.000168754
25 *137:37 *351:43 9.168e-05
26 *137:56 *351:43 6.05961e-05
27 *148:8 *351:8 0
28 *242:18 *351:33 0.0002246
29 *242:18 *351:43 1.34354e-05
30 *264:69 *1384:A 9.84851e-05
31 *264:69 *351:8 0
32 *286:14 *351:8 0
33 *341:8 *351:43 3.70187e-05
*RES
1 *1286:Q *351:8 39.9057 
2 *351:8 *1384:A 39.0979 
3 *351:8 *351:21 17.61 
4 *351:21 *351:25 2.54786 
5 *351:25 *351:33 7.00143 
6 *351:33 *351:43 20.5307 
7 *351:43 *1132:A1 40.2579 
8 *351:43 *1120:B 38 
9 *351:33 *1121:B 23 
10 *351:25 *1085:B 23 
11 *351:21 *1086:B 23 
*END

*D_NET *352 0.00352493
*CONN
*I *1086:A I *D sky130_fd_sc_hd__or2_2
*I *1085:A I *D sky130_fd_sc_hd__nor2_2
*I *1121:A I *D sky130_fd_sc_hd__and4_2
*I *1120:A I *D sky130_fd_sc_hd__and3_2
*I *1132:B1 I *D sky130_fd_sc_hd__a21o_2
*I *1285:Q O *D sky130_fd_sc_hd__dfxtp_2
*CAP
1 *1086:A 7.43687e-05
2 *1085:A 0
3 *1121:A 0
4 *1120:A 0
5 *1132:B1 0
6 *1285:Q 0.000187346
7 *352:47 0.000399848
8 *352:38 0.000555156
9 *352:25 0.000533419
10 *352:10 0.000491089
11 *1120:C *352:25 6.6426e-05
12 *1130:A2 *352:25 4.94237e-05
13 *1132:A1 *352:10 6.07611e-06
14 *1132:A1 *352:25 8.16253e-05
15 *1133:A_N *352:10 1.02387e-05
16 *1133:A_N *352:25 4.83941e-05
17 *1134:A2 *352:38 9.5877e-05
18 *137:26 *352:10 3.93659e-05
19 *137:37 *352:10 6.02277e-06
20 *137:48 *352:25 1.56762e-05
21 *137:48 *352:38 5.50049e-05
22 *147:8 *352:10 5.80963e-05
23 *242:18 *352:38 0.000167452
24 *264:58 *352:25 2.98648e-05
25 *299:8 *352:38 1.19796e-05
26 *341:8 *352:38 0
27 *351:25 *1086:A 5.50049e-05
28 *351:25 *352:47 5.15963e-05
29 *351:33 *352:47 0.000368797
30 *351:43 *352:25 6.67868e-05
*RES
1 *1285:Q *352:10 41.48 
2 *352:10 *1132:B1 38 
3 *352:10 *352:25 21.5664 
4 *352:25 *1120:A 23 
5 *352:25 *352:38 34.5364 
6 *352:38 *1121:A 23 
7 *352:38 *352:47 7.18786 
8 *352:47 *1085:A 23 
9 *352:47 *1086:A 24.5743 
*END

*D_NET *353 0.00637001
*CONN
*I *1199:B I *D sky130_fd_sc_hd__nor3_2
*I *1200:B I *D sky130_fd_sc_hd__or4_2
*I *1096:B I *D sky130_fd_sc_hd__nand2_2
*I *1069:A I *D sky130_fd_sc_hd__inv_2
*I *1178:A1 I *D sky130_fd_sc_hd__o211a_2
*I *1189:B I *D sky130_fd_sc_hd__nor3_2
*I *1190:B I *D sky130_fd_sc_hd__or4_2
*I *1307:Q O *D sky130_fd_sc_hd__dfxtp_2
*CAP
1 *1199:B 8.66196e-05
2 *1200:B 0.000105388
3 *1096:B 0
4 *1069:A 0
5 *1178:A1 0
6 *1189:B 0.000147014
7 *1190:B 0.000313944
8 *1307:Q 4.55529e-05
9 *353:73 0.00037534
10 *353:56 0.000398978
11 *353:42 0.000437711
12 *353:40 0.000362164
13 *353:34 0.000635447
14 *353:21 0.000387206
15 *353:8 0.000471006
16 *1189:B *1189:A 5.50106e-05
17 *1190:B *1190:A 0.00026917
18 *1199:B *1199:A 0.000169674
19 *1200:B *354:73 5.47808e-05
20 *353:21 *1190:A 0.000327903
21 *353:34 *1190:A 3.70187e-05
22 *353:34 *354:75 0.000210668
23 *353:73 *1199:A 8.02348e-05
24 *353:73 *354:75 0.00021356
25 *1178:A2 *353:56 2.20408e-05
26 *1182:A2 *353:56 2.24973e-05
27 *1182:B1 *353:56 8.4047e-05
28 *1183:A *353:40 0
29 *94:8 *353:56 3.71369e-05
30 *119:6 *353:40 0.000272458
31 *120:8 *1190:B 9.48381e-06
32 *158:16 *1190:B 0.000141954
33 *175:10 *353:56 5.26101e-05
34 *179:39 *1189:B 9.45494e-05
35 *180:10 *1189:B 1.32314e-05
36 *185:8 *1190:B 0
37 *185:38 *1190:B 0
38 *185:38 *353:34 0
39 *185:38 *353:73 0
40 *185:47 *353:73 0
41 *239:161 *353:56 0
42 *239:179 *353:56 0
43 *246:12 *1190:B 3.3123e-05
44 *246:12 *353:8 2.93747e-05
45 *246:12 *353:21 0.000111045
46 *246:38 *353:21 5.56203e-05
47 *246:46 *353:56 3.31683e-05
48 *267:48 *1199:B 0
49 *267:48 *353:73 0
50 *269:38 *353:40 4.02603e-05
51 *269:38 *353:42 5.41288e-05
52 *269:38 *353:56 7.88926e-05
53 *271:86 *353:56 0
*RES
1 *1307:Q *353:8 38.6214 
2 *353:8 *1190:B 44.2971 
3 *353:8 *353:21 4.37071 
4 *353:21 *1189:B 41.0243 
5 *353:21 *353:34 3.31429 
6 *353:34 *353:40 22.3121 
7 *353:40 *353:42 1.09786 
8 *353:42 *353:56 38.3945 
9 *353:56 *1178:A1 23 
10 *353:42 *1069:A 23 
11 *353:40 *1096:B 23 
12 *353:34 *353:73 4.01857 
13 *353:73 *1200:B 39.5743 
14 *353:73 *1199:B 40.2579 
*END

*D_NET *354 0.00847114
*CONN
*I *1199:A I *D sky130_fd_sc_hd__nor3_2
*I *1189:A I *D sky130_fd_sc_hd__nor3_2
*I *1190:A I *D sky130_fd_sc_hd__or4_2
*I *1200:A I *D sky130_fd_sc_hd__or4_2
*I *1096:A I *D sky130_fd_sc_hd__nand2_2
*I *1182:A1 I *D sky130_fd_sc_hd__a22o_2
*I *1180:A I *D sky130_fd_sc_hd__or2_2
*I *1179:A I *D sky130_fd_sc_hd__nand2_2
*I *1308:Q O *D sky130_fd_sc_hd__dfxtp_2
*CAP
1 *1199:A 0.000134877
2 *1189:A 1.49804e-05
3 *1190:A 0.000411885
4 *1200:A 0
5 *1096:A 0
6 *1182:A1 0
7 *1180:A 2.34823e-05
8 *1179:A 0
9 *1308:Q 0
10 *354:75 0.000644246
11 *354:73 0.000432615
12 *354:64 0.000411665
13 *354:36 0.000232795
14 *354:28 0.000621142
15 *354:20 0.000732242
16 *354:10 0.00051575
17 *354:4 0.00047968
18 *1182:A2 *354:20 3.04324e-05
19 *1182:A2 *354:28 4.96264e-05
20 *1182:B1 *354:20 0.000137651
21 *1189:B *1189:A 5.50106e-05
22 *1190:B *1190:A 0.00026917
23 *1190:D *1190:A 0.000184527
24 *1199:B *1199:A 0.000169674
25 *1200:B *354:73 5.47808e-05
26 *1201:B1 *354:64 2.02517e-05
27 *1201:B1 *354:73 9.58714e-05
28 *1308:CLK *354:36 0
29 *119:10 *354:75 1.12487e-05
30 *173:36 *354:36 0.000141879
31 *179:25 *1190:A 0
32 *179:39 *1189:A 5.50106e-05
33 *179:39 *354:20 0.000298943
34 *179:89 *354:75 0
35 *180:10 *1190:A 0
36 *181:10 *1190:A 4.9662e-05
37 *185:38 *354:10 0
38 *185:38 *354:20 0
39 *239:179 *354:10 6.22475e-05
40 *239:179 *354:20 0.000119921
41 *246:38 *354:20 0.000141052
42 *246:46 *354:20 5.50106e-05
43 *246:76 *354:36 0
44 *247:98 *1199:A 9.41704e-05
45 *269:38 *1199:A 1.01436e-05
46 *269:38 *354:75 0.000136486
47 *269:57 *1199:A 0.000240695
48 *271:86 *354:28 7.59794e-05
49 *272:23 *354:36 7.53384e-06
50 *272:42 *354:36 0.000379422
51 *353:21 *1190:A 0.000327903
52 *353:34 *1190:A 3.70187e-05
53 *353:34 *354:75 0.000210668
54 *353:73 *1199:A 8.02348e-05
55 *353:73 *354:75 0.00021356
*RES
1 *1308:Q *354:4 23 
2 *354:4 *354:10 17.5271 
3 *354:10 *354:20 24.3421 
4 *354:20 *354:28 35.0336 
5 *354:28 *354:36 35.6964 
6 *354:36 *1179:A 23 
7 *354:28 *1180:A 23.4971 
8 *354:20 *1182:A1 23 
9 *354:10 *1096:A 38 
10 *354:4 *354:64 4.80571 
11 *354:64 *1200:A 23 
12 *354:64 *354:73 17.0507 
13 *354:73 *354:75 5.77929 
14 *354:75 *1190:A 48.295 
15 *354:75 *1189:A 38.6214 
16 *354:73 *1199:A 42.4121 
*END

*D_NET *355 0.00410493
*CONN
*I *1068:A I *D sky130_fd_sc_hd__inv_2
*I *1188:C1 I *D sky130_fd_sc_hd__a211o_2
*I *1184:A1 I *D sky130_fd_sc_hd__a22o_2
*I *1309:Q O *D sky130_fd_sc_hd__dfxtp_2
*CAP
1 *1068:A 0.000182777
2 *1188:C1 0
3 *1184:A1 0
4 *1309:Q 0.000682284
5 *355:31 0.000159218
6 *355:16 0.000487025
7 *355:8 0.00119287
8 *1184:A2 *355:16 3.7405e-05
9 *1184:A2 *355:31 0.000220264
10 *1184:B2 *355:31 0.000108681
11 *1185:B *1068:A 6.32688e-05
12 *1185:B *355:16 5.03449e-05
13 *1186:A *355:16 5.08899e-05
14 *1186:B *355:16 8.1796e-05
15 *1198:C1 *355:8 1.39431e-05
16 *1309:D *355:8 3.24476e-06
17 *93:10 *1068:A 8.4047e-05
18 *93:10 *355:16 9.26005e-05
19 *93:41 *1068:A 9.67842e-05
20 *116:29 *355:16 0
21 *120:8 *355:31 4.7803e-05
22 *158:16 *1068:A 0.000137651
23 *170:46 *355:16 3.91386e-05
24 *170:46 *355:31 8.1796e-05
25 *177:10 *355:8 8.06804e-06
26 *178:8 *355:31 0.000134077
27 *246:20 *1068:A 2.24973e-05
28 *246:20 *355:8 2.64616e-05
*RES
1 *1309:Q *355:8 46.7207 
2 *355:8 *355:16 22.5193 
3 *355:16 *1184:A1 23 
4 *355:16 *355:31 34.8057 
5 *355:31 *1188:C1 23 
6 *355:8 *1068:A 41.9771 
*END

*D_NET *356 0.000367869
*CONN
*I *1391:A I *D sky130_fd_sc_hd__dlygate4sd3_1
*I *1310:Q O *D sky130_fd_sc_hd__dfxtp_2
*CAP
1 *1391:A 0
2 *1310:Q 3.98243e-05
3 *356:8 3.98243e-05
4 *44:10 *356:8 0.00014411
5 *158:27 *356:8 0.00014411
*RES
1 *1310:Q *356:8 39.9057 
2 *356:8 *1391:A 38 
*END

*D_NET *357 0.000705476
*CONN
*I *1378:A I *D sky130_fd_sc_hd__dlygate4sd3_1
*I *1311:Q O *D sky130_fd_sc_hd__dfxtp_2
*CAP
1 *1378:A 9.64065e-05
2 *1311:Q 6.24349e-05
3 *357:8 0.000158841
4 *357:8 *365:25 0.000137788
5 *159:27 *357:8 0.000135547
6 *268:31 *1378:A 9.41704e-05
7 *279:29 *1378:A 2.02872e-05
*RES
1 *1311:Q *357:8 39.9057 
2 *357:8 *1378:A 39.5743 
*END

*D_NET *358 0.00176166
*CONN
*I *1387:A I *D sky130_fd_sc_hd__dlygate4sd3_1
*I *1312:Q O *D sky130_fd_sc_hd__dfxtp_2
*CAP
1 *1387:A 0
2 *1312:Q 0.000423663
3 *358:10 0.000423663
4 *1446:A *358:10 0.000156388
5 *158:63 *358:10 0.000374011
6 *185:66 *358:10 9.52332e-06
7 *253:10 *358:10 0.000324742
8 *272:42 *358:10 4.96717e-05
9 *289:10 *358:10 0
*RES
1 *1312:Q *358:10 47.5907 
2 *358:10 *1387:A 38 
*END

*D_NET *359 0.003259
*CONN
*I *1389:A I *D sky130_fd_sc_hd__dlygate4sd3_1
*I *1313:Q O *D sky130_fd_sc_hd__dfxtp_2
*CAP
1 *1389:A 0
2 *1313:Q 0
3 *359:14 0.00067745
4 *359:6 0.00067745
5 *1157:A1 *359:14 4.66945e-05
6 *1157:A2 *359:14 0.000783738
7 *1157:B1 *359:14 5.50106e-05
8 *1157:C1 *359:14 5.50106e-05
9 *1162:B *359:14 5.33753e-05
10 *158:27 *359:14 0
11 *158:31 *359:14 5.15908e-05
12 *159:91 *359:14 0.000396795
13 *164:10 *359:14 0.000461888
*RES
1 *1313:Q *359:6 38 
2 *359:6 *359:14 34.14 
3 *359:14 *1389:A 23 
*END

*D_NET *360 0.000380716
*CONN
*I *1392:A I *D sky130_fd_sc_hd__dlygate4sd3_1
*I *1314:Q O *D sky130_fd_sc_hd__dfxtp_2
*CAP
1 *1392:A 0
2 *1314:Q 4.93995e-05
3 *360:8 4.93995e-05
4 *158:31 *360:8 0.000140958
5 *164:10 *360:8 0.000140958
*RES
1 *1314:Q *360:8 39.9057 
2 *360:8 *1392:A 38 
*END

*D_NET *361 0.000224986
*CONN
*I *1376:A I *D sky130_fd_sc_hd__dlygate4sd3_1
*I *1315:Q O *D sky130_fd_sc_hd__dfxtp_2
*CAP
1 *1376:A 0
2 *1315:Q 0.000112493
3 *361:8 0.000112493
4 *244:91 *361:8 0
*RES
1 *1315:Q *361:8 39.9057 
2 *361:8 *1376:A 38 
*END

*D_NET *362 0.000472554
*CONN
*I *1382:A I *D sky130_fd_sc_hd__dlygate4sd3_1
*I *1316:Q O *D sky130_fd_sc_hd__dfxtp_2
*CAP
1 *1382:A 0
2 *1316:Q 0.000186187
3 *362:10 0.000186187
4 *1168:A *362:10 0
5 *1168:B *362:10 0
6 *159:48 *362:10 0.00010018
7 *247:33 *362:10 0
8 *284:10 *362:10 0
*RES
1 *1316:Q *362:10 41.0036 
2 *362:10 *1382:A 38 
*END

*D_NET *363 0.000792762
*CONN
*I *1385:A I *D sky130_fd_sc_hd__dlygate4sd3_1
*I *1317:Q O *D sky130_fd_sc_hd__dfxtp_2
*CAP
1 *1385:A 0
2 *1317:Q 0.000280657
3 *363:10 0.000280657
4 *1170:A *363:10 0.000108662
5 *1451:A *363:10 6.57448e-05
6 *167:18 *363:10 5.70419e-05
7 *287:23 *363:10 0
*RES
1 *1317:Q *363:10 43.8207 
2 *363:10 *1385:A 38 
*END

*D_NET *364 0.000922184
*CONN
*I *1373:A I *D sky130_fd_sc_hd__dlygate4sd3_1
*I *1304:Q O *D sky130_fd_sc_hd__dfxtp_2
*CAP
1 *1373:A 0
2 *1304:Q 0.000461092
3 *364:8 0.000461092
*RES
1 *1304:Q *364:8 30.3121 
2 *364:8 *1373:A 23 
*END

*D_NET *365 0.00649669
*CONN
*I *1367:A I *D sky130_fd_sc_hd__clkdlybuf4s25_1
*I *1366:A I *D sky130_fd_sc_hd__clkdlybuf4s25_1
*I *1305:Q O *D sky130_fd_sc_hd__dfxtp_2
*CAP
1 *1367:A 0
2 *1366:A 0.000105332
3 *1305:Q 0.00049093
4 *365:25 0.00145843
5 *365:10 0.00205469
6 *1366:A *368:6 5.70419e-05
7 *365:10 *367:27 0
8 *365:25 *1105:C 0
9 *1205:C1 *365:25 9.17998e-05
10 *27:12 *365:25 0
11 *49:10 *365:25 0
12 *124:30 *365:10 2.30292e-05
13 *124:34 *365:10 0.000176484
14 *127:14 *365:10 0
15 *127:14 *365:25 0
16 *159:10 *365:25 0.000277695
17 *159:27 *365:25 0.000913473
18 *159:38 *365:25 0.000181943
19 *239:23 *365:25 0
20 *246:69 *365:25 0
21 *266:12 *1366:A 4.94192e-05
22 *266:81 *365:25 0
23 *267:17 *365:25 0.000178517
24 *272:12 *365:25 0
25 *272:57 *365:25 0
26 *279:14 *365:25 0.000300117
27 *311:10 *365:25 0
28 *357:8 *365:25 0.000137788
*RES
1 *1305:Q *365:10 45.6436 
2 *365:10 *1366:A 40.5271 
3 *365:10 *365:25 47.8321 
4 *365:25 *1367:A 23 
*END

*D_NET *366 0.00121444
*CONN
*I *1105:B I *D sky130_fd_sc_hd__and3b_2
*I *1407:A I *D sky130_fd_sc_hd__dlygate4sd3_1
*I *1306:Q O *D sky130_fd_sc_hd__dfxtp_2
*CAP
1 *1105:B 0.000186686
2 *1407:A 2.14194e-05
3 *1306:Q 0.000217212
4 *366:6 0.000425317
5 *127:14 *1105:B 2.9938e-05
6 *127:14 *366:6 0.000250617
7 *127:23 *1105:B 7.73389e-05
8 *127:23 *1407:A 5.90675e-06
*RES
1 *1306:Q *366:6 27.9093 
2 *366:6 *1407:A 23.4971 
3 *366:6 *1105:B 26.0243 
*END

*D_NET *367 0.00566906
*CONN
*I *1105:C I *D sky130_fd_sc_hd__and3b_2
*I *1076:A I *D sky130_fd_sc_hd__inv_2
*I *1187:A I *D sky130_fd_sc_hd__or2_2
*I *1418:A I *D sky130_fd_sc_hd__dlygate4sd3_1
*I *1344:Q O *D sky130_fd_sc_hd__dfxtp_2
*CAP
1 *1105:C 0.000113316
2 *1076:A 3.17092e-05
3 *1187:A 0.000459161
4 *1418:A 0
5 *1344:Q 7.63424e-05
6 *367:51 0.000971674
7 *367:31 0.000754495
8 *367:27 0.000605968
9 *367:14 0.000288216
10 *367:6 0.000646938
11 *1187:A *1153:B 8.65168e-05
12 *1187:A *368:65 0.000246499
13 *367:31 *368:6 0.00010655
14 *367:31 *368:17 7.30945e-05
15 *367:51 *1108:C_N 0
16 *367:51 *1176:C1 1.24376e-05
17 *367:51 *368:17 7.67422e-05
18 *367:51 *368:27 1.01436e-05
19 *367:51 *368:36 2.24608e-05
20 *367:51 *369:27 0
21 *367:51 *370:22 4.35681e-06
22 *1108:A *367:14 0
23 *1108:A *367:27 0
24 *1108:A *367:31 0.00014196
25 *1108:B *1105:C 0
26 *1108:B *367:27 0
27 *1111:C1 *367:14 8.22421e-06
28 *1153:D *1187:A 3.17516e-05
29 *1176:B1 *1187:A 6.82416e-05
30 *1176:B1 *367:51 0
31 *1187:B *1187:A 0.000101444
32 *117:20 *367:51 9.85586e-06
33 *124:28 *367:14 0
34 *124:30 *367:6 3.71251e-05
35 *124:30 *367:27 5.10805e-05
36 *126:14 *367:14 0.000128391
37 *142:10 *1187:A 0.000174265
38 *239:122 *367:51 4.35681e-06
39 *266:59 *1187:A 5.3304e-05
40 *266:73 *1105:C 2.54046e-05
41 *266:81 *1105:C 1.64354e-05
42 *300:42 *367:14 0.000230604
43 *365:10 *367:27 0
44 *365:25 *1105:C 0
*RES
1 *1344:Q *367:6 24.0979 
2 *367:6 *367:14 36.1936 
3 *367:14 *1418:A 23 
4 *367:6 *367:27 19.4536 
5 *367:27 *367:31 20.1475 
6 *367:31 *367:51 49.7154 
7 *367:51 *1187:A 34.6621 
8 *367:31 *1076:A 23.8596 
9 *367:27 *1105:C 40.0973 
*END

*D_NET *368 0.0136382
*CONN
*I *1430:A I *D sky130_fd_sc_hd__dlygate4sd3_1
*I *1174:A1 I *D sky130_fd_sc_hd__a21oi_2
*I *1188:A1 I *D sky130_fd_sc_hd__a211o_2
*I *1198:A1 I *D sky130_fd_sc_hd__a211o_2
*I *1175:A1 I *D sky130_fd_sc_hd__a21o_2
*I *1124:A1 I *D sky130_fd_sc_hd__o21a_2
*I *1150:A2 I *D sky130_fd_sc_hd__o311a_2
*I *1176:C1 I *D sky130_fd_sc_hd__o211a_2
*I *1152:A2 I *D sky130_fd_sc_hd__o311a_2
*I *1108:C_N I *D sky130_fd_sc_hd__or3b_2
*I *1345:Q O *D sky130_fd_sc_hd__dfxtp_2
*CAP
1 *1430:A 0.000407751
2 *1174:A1 0
3 *1188:A1 0.000328265
4 *1198:A1 3.88664e-05
5 *1175:A1 0.000143459
6 *1124:A1 0
7 *1150:A2 0.000461685
8 *1176:C1 7.57697e-05
9 *1152:A2 0
10 *1108:C_N 2.34823e-05
11 *1345:Q 0.000108886
12 *368:108 0.000594128
13 *368:93 0.000609511
14 *368:69 0.00050007
15 *368:67 0.000277439
16 *368:65 0.000752265
17 *368:53 0.000777591
18 *368:49 0.000558095
19 *368:36 0.000267867
20 *368:27 0.000579148
21 *368:17 0.000796916
22 *368:6 0.000283057
23 *1150:A2 *369:27 0
24 *1150:A2 *370:60 0
25 *368:27 *1111:A1 0
26 *368:27 *1152:A1 0
27 *368:53 *370:14 2.02872e-05
28 *368:65 *1153:B 2.02872e-05
29 *368:65 *1420:A 6.17437e-06
30 *368:65 *370:14 0.000265477
31 *1098:B *1188:A1 1.68748e-05
32 *1098:B *368:108 1.5769e-05
33 *1108:A *368:17 0.00014196
34 *1108:A *368:27 0
35 *1108:B *368:27 1.19692e-05
36 *1108:B *368:36 1.69668e-05
37 *1108:B *368:49 0
38 *1124:B1 *1150:A2 1.44546e-05
39 *1124:B1 *368:69 1.7992e-05
40 *1124:B1 *368:93 7.1357e-05
41 *1150:A3 *1150:A2 5.50106e-05
42 *1150:B1 *1150:A2 3.91386e-05
43 *1150:C1 *1150:A2 0.000160514
44 *1153:D *368:65 0.000137651
45 *1184:A2 *1175:A1 0.000311529
46 *1187:A *368:65 0.000246499
47 *1198:A2 *368:108 6.17437e-06
48 *1198:B1 *1188:A1 1.32939e-05
49 *1198:B1 *1198:A1 5.12055e-06
50 *1198:C1 *1188:A1 0.000146701
51 *1198:C1 *1198:A1 0
52 *1364:A *1150:A2 1.76557e-05
53 *1366:A *368:6 5.70419e-05
54 *42:10 *368:27 6.07591e-05
55 *43:8 *1150:A2 0
56 *101:10 *368:49 0.000138718
57 *101:25 *1176:C1 7.28721e-05
58 *101:25 *368:65 1.01436e-05
59 *115:24 *368:27 2.05503e-05
60 *116:48 *368:108 2.05503e-05
61 *116:63 *1198:A1 0
62 *116:80 *1175:A1 5.67058e-05
63 *117:20 *1430:A 0.00026916
64 *117:20 *368:27 3.68514e-05
65 *117:20 *368:36 7.31043e-06
66 *117:20 *368:49 0.000188926
67 *120:8 *368:108 0
68 *127:23 *368:53 5.3304e-05
69 *127:23 *368:65 8.39276e-05
70 *127:35 *368:65 0.000100005
71 *141:10 *1150:A2 0.000110922
72 *142:10 *1150:A2 8.72445e-05
73 *142:16 *1150:A2 0.000293041
74 *170:8 *368:65 4.96264e-05
75 *170:46 *1175:A1 0.000528927
76 *178:8 *368:93 0
77 *178:8 *368:108 0
78 *239:105 *1430:A 3.26745e-05
79 *239:110 *1430:A 0.000229094
80 *239:153 *1175:A1 6.17437e-06
81 *264:10 *368:27 0.000354778
82 *264:22 *368:27 5.67058e-05
83 *266:12 *368:6 0.000401899
84 *266:38 *368:6 5.67058e-05
85 *266:38 *368:17 0.00012612
86 *266:44 *368:27 7.02841e-05
87 *271:19 *368:65 7.43025e-06
88 *271:45 *368:93 5.01247e-05
89 *271:45 *368:108 6.74138e-05
90 *272:27 *1430:A 0.00012758
91 *300:42 *368:27 0.000105117
92 *308:8 *368:27 0
93 *326:10 *1150:A2 0
94 *337:10 *1430:A 5.50049e-05
95 *344:14 *1150:A2 0
96 *344:14 *368:69 0
97 *367:31 *368:6 0.00010655
98 *367:31 *368:17 7.30945e-05
99 *367:51 *1108:C_N 0
100 *367:51 *1176:C1 1.24376e-05
101 *367:51 *368:17 7.67422e-05
102 *367:51 *368:27 1.01436e-05
103 *367:51 *368:36 2.24608e-05
*RES
1 *1345:Q *368:6 27.9093 
2 *368:6 *1108:C_N 23.4971 
3 *368:6 *368:17 18.9564 
4 *368:17 *368:27 27.0971 
5 *368:27 *1152:A2 23 
6 *368:17 *368:36 1.47071 
7 *368:36 *1176:C1 39.5743 
8 *368:36 *368:49 3.23143 
9 *368:49 *368:53 15.6214 
10 *368:53 *368:65 43.2986 
11 *368:65 *368:67 15 
12 *368:67 *368:69 0.849286 
13 *368:69 *1150:A2 49.2064 
14 *368:69 *1124:A1 38 
15 *368:67 *368:93 5.075 
16 *368:93 *1175:A1 44.815 
17 *368:93 *368:108 18.9357 
18 *368:108 *1198:A1 23.8493 
19 *368:108 *1188:A1 28.655 
20 *368:53 *1174:A1 23 
21 *368:49 *1430:A 47.5493 
*END

*D_NET *369 0.0101782
*CONN
*I *1146:A3 I *D sky130_fd_sc_hd__a32o_2
*I *1123:B I *D sky130_fd_sc_hd__or2_2
*I *1397:A I *D sky130_fd_sc_hd__dlygate4sd3_1
*I *1346:Q O *D sky130_fd_sc_hd__dfxtp_2
*CAP
1 *1146:A3 0
2 *1123:B 1.50079e-05
3 *1397:A 0
4 *1346:Q 0.0001895
5 *369:50 0.000767267
6 *369:44 0.00106161
7 *369:27 0.00201334
8 *369:10 0.00189349
9 *1123:B *370:60 5.50049e-05
10 *369:27 *370:60 2.98653e-05
11 *1111:C1 *369:27 0.000634993
12 *1115:B *369:50 0.000215917
13 *1146:A2 *369:50 5.00237e-05
14 *1146:B1 *369:50 0.000179624
15 *1150:A2 *369:27 0
16 *1151:A1 *1123:B 5.50049e-05
17 *43:8 *369:44 3.70187e-05
18 *43:16 *369:44 0.000569799
19 *115:24 *369:27 0.000534291
20 *115:35 *369:27 0.000165186
21 *116:10 *369:50 4.22172e-05
22 *127:14 *369:10 9.28078e-06
23 *127:14 *369:27 6.18826e-05
24 *133:10 *369:50 3.673e-05
25 *133:77 *369:50 0.000357141
26 *141:10 *369:44 0.000187129
27 *142:10 *369:50 5.68423e-05
28 *326:10 *369:27 1.02387e-05
29 *326:10 *369:44 1.27508e-05
30 *340:23 *369:50 0
31 *344:14 *369:50 0.000203407
32 *344:16 *369:50 0.000525257
33 *344:18 *369:50 0.00020842
34 *345:10 *369:50 0
35 *367:51 *369:27 0
*RES
1 *1346:Q *369:10 40.8793 
2 *369:10 *1397:A 38 
3 *369:10 *369:27 22.4087 
4 *369:27 *1123:B 38.6214 
5 *369:27 *369:44 37.54 
6 *369:44 *369:50 34.8443 
7 *369:50 *1146:A3 23 
*END

*D_NET *370 0.011017
*CONN
*I *1095:A I *D sky130_fd_sc_hd__and3_2
*I *1155:B I *D sky130_fd_sc_hd__nand3_2
*I *1154:B I *D sky130_fd_sc_hd__and3_2
*I *1420:A I *D sky130_fd_sc_hd__dlygate4sd3_1
*I *1153:B I *D sky130_fd_sc_hd__and4_2
*I *1123:A I *D sky130_fd_sc_hd__or2_2
*I *1111:A1 I *D sky130_fd_sc_hd__a221o_2
*I *1152:A1 I *D sky130_fd_sc_hd__o311a_2
*I *1347:Q O *D sky130_fd_sc_hd__dfxtp_2
*CAP
1 *1095:A 0.000170448
2 *1155:B 5.63024e-05
3 *1154:B 0.00025921
4 *1420:A 7.54611e-05
5 *1153:B 3.68599e-05
6 *1123:A 0
7 *1111:A1 4.26322e-05
8 *1152:A1 0.000294884
9 *1347:Q 0
10 *370:91 0.000456141
11 *370:87 0.000544212
12 *370:60 0.000390633
13 *370:26 0.000877462
14 *370:22 0.00119942
15 *370:18 0.000382746
16 *370:16 0.000152505
17 *370:14 0.000697538
18 *370:4 0.000930674
19 *1095:C *1095:A 5.55784e-05
20 *1108:B *370:14 0.000210649
21 *1123:B *370:60 5.50049e-05
22 *1150:A2 *370:60 0
23 *1150:A3 *370:60 9.84851e-05
24 *1151:A1 *370:60 4.50607e-05
25 *1153:D *1153:B 5.50106e-05
26 *1153:D *370:18 3.70187e-05
27 *1153:D *370:22 7.39034e-05
28 *1154:C *1154:B 7.37897e-05
29 *1187:A *1153:B 8.65168e-05
30 *1344:CLK *1111:A1 5.24393e-05
31 *1344:CLK *1152:A1 0.000199701
32 *1364:A *370:26 2.93747e-05
33 *1364:A *370:60 4.34682e-05
34 *40:10 *370:60 5.3304e-05
35 *42:10 *1152:A1 5.70419e-05
36 *101:10 *370:14 2.70469e-05
37 *115:8 *370:22 3.66809e-05
38 *115:35 *370:22 0.00033319
39 *117:20 *370:91 0
40 *121:8 *1095:A 2.98648e-05
41 *121:8 *370:14 1.59094e-05
42 *121:8 *370:87 0.000116409
43 *124:78 *370:22 1.83667e-05
44 *124:78 *370:60 9.48381e-06
45 *127:23 *370:14 4.2062e-05
46 *127:35 *370:22 0
47 *130:10 *370:26 3.28609e-05
48 *169:18 *370:91 6.67868e-05
49 *170:8 *1420:A 8.02348e-05
50 *170:8 *370:18 0.000110913
51 *239:122 *370:22 0
52 *243:40 *1152:A1 0.000199701
53 *264:10 *370:26 0.000180224
54 *264:22 *1152:A1 0.000180812
55 *266:59 *370:22 0.000108681
56 *266:117 *1154:B 0.000142835
57 *271:19 *1420:A 7.4416e-05
58 *271:25 *1420:A 2.99716e-05
59 *271:25 *370:18 2.79064e-05
60 *271:59 *1155:B 8.62876e-05
61 *271:59 *370:91 8.4047e-05
62 *272:27 *1155:B 0
63 *272:27 *370:14 0.0003731
64 *300:42 *370:26 0.000332622
65 *308:8 *1152:A1 0
66 *326:10 *370:60 0.000136614
67 *367:51 *370:22 4.35681e-06
68 *368:27 *1111:A1 0
69 *368:27 *1152:A1 0
70 *368:53 *370:14 2.02872e-05
71 *368:65 *1153:B 2.02872e-05
72 *368:65 *1420:A 6.17437e-06
73 *368:65 *370:14 0.000265477
74 *369:27 *370:60 2.98653e-05
*RES
1 *1347:Q *370:4 23 
2 *370:4 *370:14 42.7393 
3 *370:14 *370:16 15 
4 *370:16 *370:18 1.90571 
5 *370:18 *370:22 21.4836 
6 *370:22 *370:26 25.6264 
7 *370:26 *1152:A1 46.555 
8 *370:26 *1111:A1 38.8493 
9 *370:22 *370:60 37.3536 
10 *370:60 *1123:A 23 
11 *370:18 *1153:B 39.0979 
12 *370:16 *1420:A 40.7757 
13 *370:4 *370:87 3.48 
14 *370:87 *370:91 17.9621 
15 *370:91 *1154:B 41.48 
16 *370:91 *1155:B 39.2014 
17 *370:87 *1095:A 25.5479 
*END

*D_NET *371 0.00681794
*CONN
*I *1218:A I *D sky130_fd_sc_hd__nand3_2
*I *1219:A1 I *D sky130_fd_sc_hd__a21o_2
*I *1208:B I *D sky130_fd_sc_hd__nand2b_2
*I *1216:A_N I *D sky130_fd_sc_hd__nand2b_2
*I *1222:A1 I *D sky130_fd_sc_hd__a31o_2
*I *1429:A I *D sky130_fd_sc_hd__dlygate4sd3_1
*I *1221:A I *D sky130_fd_sc_hd__and4_2
*I *1318:Q O *D sky130_fd_sc_hd__dfxtp_2
*CAP
1 *1218:A 0.000452435
2 *1219:A1 0
3 *1208:B 0
4 *1216:A_N 3.39756e-05
5 *1222:A1 4.99221e-05
6 *1429:A 0
7 *1221:A 0.00107165
8 *1318:Q 0.000152334
9 *371:74 0.000543714
10 *371:67 0.000381303
11 *371:54 0.000575574
12 *371:50 0.00031958
13 *371:37 0.000417176
14 *371:21 0.000119442
15 *371:6 0.00104417
16 *1218:A *1218:B 5.90675e-06
17 *1218:A *1401:A 2.30292e-05
18 *1218:A *375:39 0.000230991
19 *1222:A1 *376:31 5.3304e-05
20 *371:37 *1221:B 0.000428691
21 *371:37 *376:22 0
22 *371:37 *377:26 0
23 *371:50 *375:45 3.47776e-05
24 *371:54 *375:39 0
25 *371:54 *375:45 5.12254e-05
26 *371:67 *372:22 0.000184634
27 *371:67 *375:45 1.01436e-05
28 *371:67 *375:71 0
29 *371:74 *375:39 5.67058e-05
30 *371:74 *375:45 4.66047e-05
31 *66:8 *1221:A 9.66838e-05
32 *69:8 *371:37 0
33 *191:22 *371:67 0.000164618
34 *192:14 *371:67 0
35 *198:8 *371:67 4.04496e-05
36 *200:8 *1218:A 0.000228903
37 *240:83 *371:37 0
38 *334:8 *371:21 0
*RES
1 *1318:Q *371:6 25.0507 
2 *371:6 *1221:A 33.1707 
3 *371:6 *371:21 31.9057 
4 *371:21 *1429:A 23 
5 *1221:A *371:37 44.7529 
6 *371:37 *1222:A1 38.6214 
7 *371:37 *371:50 16.2014 
8 *371:50 *371:54 2.42357 
9 *371:54 *1216:A_N 23.6214 
10 *371:54 *371:67 38.5964 
11 *371:67 *1208:B 23 
12 *371:50 *371:74 1.57429 
13 *371:74 *1219:A1 23 
14 *371:74 *1218:A 30.6643 
*END

*D_NET *372 0.00818226
*CONN
*I *1244:A1 I *D sky130_fd_sc_hd__a21o_2
*I *1406:A I *D sky130_fd_sc_hd__dlygate4sd3_1
*I *1242:A1 I *D sky130_fd_sc_hd__a211o_2
*I *1247:A1 I *D sky130_fd_sc_hd__a31o_2
*I *1210:A I *D sky130_fd_sc_hd__or3_2
*I *1328:Q O *D sky130_fd_sc_hd__dfxtp_2
*CAP
1 *1244:A1 2.34823e-05
2 *1406:A 0
3 *1242:A1 0.000112802
4 *1247:A1 0
5 *1210:A 0
6 *1328:Q 0.000498811
7 *372:40 0.000218862
8 *372:38 0.000393095
9 *372:22 0.000483526
10 *372:14 0.000967876
11 *372:8 0.00124671
12 *372:14 *373:20 1.21776e-05
13 *372:22 *1210:B 0.000441037
14 *372:22 *373:20 1.13812e-05
15 *372:40 *1244:B1 5.50049e-05
16 *1242:A2 *1242:A1 3.89917e-05
17 *1242:B1 *1242:A1 9.28339e-05
18 *1244:A2 *372:38 3.47781e-05
19 *1247:B1 *372:14 6.17437e-06
20 *1346:CLK *372:14 0
21 *213:17 *372:14 0.000412959
22 *213:32 *372:14 6.48142e-05
23 *213:41 *372:14 0.000302339
24 *213:41 *372:38 0.000314599
25 *213:45 *1242:A1 0.000607746
26 *213:45 *372:38 4.17736e-05
27 *213:45 *372:40 0.000256932
28 *240:22 *372:22 0.000308643
29 *241:8 *372:14 0
30 *241:8 *372:38 0
31 *241:18 *372:8 0.000482529
32 *241:20 *372:8 9.88259e-05
33 *241:73 *372:38 0
34 *273:65 *1242:A1 1.10658e-05
35 *273:78 *1242:A1 0.000457852
36 *274:10 *372:14 0
37 *318:10 *372:14 0
38 *371:67 *372:22 0.000184634
*RES
1 *1328:Q *372:8 45.2914 
2 *372:8 *372:14 26.455 
3 *372:14 *372:22 41.5379 
4 *372:22 *1210:A 23 
5 *372:14 *1247:A1 23 
6 *372:8 *372:38 20.8207 
7 *372:38 *372:40 3.00357 
8 *372:40 *1242:A1 30.4571 
9 *372:40 *1406:A 23 
10 *372:38 *1244:A1 23.4971 
*END

*D_NET *373 0.00518664
*CONN
*I *1244:B1 I *D sky130_fd_sc_hd__a21o_2
*I *1245:B I *D sky130_fd_sc_hd__nand3_2
*I *1247:A2 I *D sky130_fd_sc_hd__a31o_2
*I *1210:B I *D sky130_fd_sc_hd__or3_2
*I *1329:Q O *D sky130_fd_sc_hd__dfxtp_2
*CAP
1 *1244:B1 0.00028269
2 *1245:B 5.12567e-05
3 *1247:A2 0
4 *1210:B 0.000610984
5 *1329:Q 0.000212492
6 *373:20 0.000834297
7 *373:14 0.000403107
8 *373:10 0.000623719
9 *1243:A2 *1245:B 2.93747e-05
10 *1244:A2 *1244:B1 2.24973e-05
11 *213:17 *373:20 6.01971e-06
12 *213:41 *1244:B1 0.000227469
13 *213:41 *373:14 3.89207e-05
14 *217:22 *1245:B 1.24376e-05
15 *217:22 *373:14 2.96051e-05
16 *217:22 *373:20 7.80251e-05
17 *218:10 *373:20 0.000225275
18 *239:33 *1244:B1 7.62945e-05
19 *239:35 *1210:B 7.74369e-05
20 *239:35 *1244:B1 8.23069e-05
21 *239:35 *373:14 9.6289e-05
22 *239:35 *373:20 0.000215344
23 *240:22 *1210:B 0.000351997
24 *241:18 *373:10 7.9199e-05
25 *372:14 *373:20 1.21776e-05
26 *372:22 *1210:B 0.000441037
27 *372:22 *373:20 1.13812e-05
28 *372:40 *1244:B1 5.50049e-05
*RES
1 *1329:Q *373:10 41.0243 
2 *373:10 *373:14 3.23143 
3 *373:14 *373:20 6.89786 
4 *373:20 *1210:B 48.8336 
5 *373:20 *1247:A2 38 
6 *373:14 *1245:B 39.1186 
7 *373:10 *1244:B1 45.4571 
*END

*D_NET *374 0.00212783
*CONN
*I *1413:A I *D sky130_fd_sc_hd__dlygate4sd3_1
*I *1210:C I *D sky130_fd_sc_hd__or3_2
*I *1330:Q O *D sky130_fd_sc_hd__dfxtp_2
*CAP
1 *1413:A 0.000325066
2 *1210:C 0.00026908
3 *1330:Q 0.000317546
4 *374:8 0.000911692
5 *1247:B1 *1413:A 0
6 *1247:B1 *374:8 8.26478e-05
7 *28:8 *1413:A 0
8 *306:8 *1210:C 0.000164392
9 *318:10 *1413:A 0
10 *319:10 *1413:A 5.7409e-05
*RES
1 *1330:Q *374:8 42.4329 
2 *374:8 *1210:C 43.075 
3 *374:8 *1413:A 44.4836 
*END

*D_NET *375 0.0050077
*CONN
*I *1219:A2 I *D sky130_fd_sc_hd__a21o_2
*I *1208:A_N I *D sky130_fd_sc_hd__nand2b_2
*I *1221:B I *D sky130_fd_sc_hd__and4_2
*I *1222:A2 I *D sky130_fd_sc_hd__a31o_2
*I *1218:B I *D sky130_fd_sc_hd__nand3_2
*I *1401:A I *D sky130_fd_sc_hd__dlygate4sd3_1
*I *1319:Q O *D sky130_fd_sc_hd__dfxtp_2
*CAP
1 *1219:A2 0
2 *1208:A_N 0
3 *1221:B 0.000204641
4 *1222:A2 0
5 *1218:B 5.79902e-05
6 *1401:A 0.000252268
7 *1319:Q 0.000113477
8 *375:71 0.000430324
9 *375:45 0.000391332
10 *375:39 0.000810805
11 *375:10 0.000116469
12 *375:8 0.000113477
13 *1221:B *376:57 0.000378492
14 *375:45 *376:22 0
15 *375:71 *376:22 2.76611e-06
16 *1212:C *375:71 2.33679e-05
17 *1218:A *1218:B 5.90675e-06
18 *1218:A *1401:A 2.30292e-05
19 *1218:A *375:39 0.000230991
20 *1402:A *375:71 5.3304e-05
21 *67:10 *375:71 0.000340929
22 *191:22 *375:71 1.61901e-05
23 *198:8 *375:71 6.90927e-05
24 *200:8 *375:39 0.000228903
25 *240:8 *375:71 0.000143166
26 *305:6 *375:39 0.00023068
27 *305:6 *375:45 0.000141954
28 *371:37 *1221:B 0.000428691
29 *371:50 *375:45 3.47776e-05
30 *371:54 *375:39 0
31 *371:54 *375:45 5.12254e-05
32 *371:67 *375:45 1.01436e-05
33 *371:67 *375:71 0
34 *371:74 *375:39 5.67058e-05
35 *371:74 *375:45 4.66047e-05
*RES
1 *1319:Q *375:8 39.9057 
2 *375:8 *375:10 15 
3 *375:10 *1401:A 24.0979 
4 *375:10 *1218:B 24.1186 
5 *1401:A *375:39 30.4779 
6 *375:39 *375:45 18.9564 
7 *375:45 *1222:A2 38 
8 *375:45 *1221:B 44.4007 
9 *375:39 *375:71 40.0464 
10 *375:71 *1208:A_N 23 
11 *375:39 *1219:A2 23 
*END

*D_NET *376 0.00447467
*CONN
*I *1427:A I *D sky130_fd_sc_hd__dlygate4sd3_1
*I *1221:C I *D sky130_fd_sc_hd__and4_2
*I *1222:A3 I *D sky130_fd_sc_hd__a31o_2
*I *1209:A I *D sky130_fd_sc_hd__or4b_2
*I *1219:B1 I *D sky130_fd_sc_hd__a21o_2
*I *1320:Q O *D sky130_fd_sc_hd__dfxtp_2
*CAP
1 *1427:A 0.000101358
2 *1221:C 0
3 *1222:A3 0
4 *1209:A 0.000182963
5 *1219:B1 0
6 *1320:Q 7.87035e-05
7 *376:57 0.000206775
8 *376:33 0.000213491
9 *376:31 0.000409241
10 *376:22 0.000202657
11 *376:16 0.000968721
12 *376:10 0.000695485
13 *376:8 7.87035e-05
14 *1209:A *1209:D_N 9.32114e-05
15 *376:16 *1209:D_N 9.84794e-05
16 *376:16 *1425:A 0.00014196
17 *376:31 *1209:D_N 7.34709e-05
18 *376:33 *1209:D_N 2.18409e-05
19 *376:57 *1209:D_N 0
20 *376:57 *377:10 8.62783e-05
21 *1221:B *376:57 0.000378492
22 *1222:A1 *376:31 5.3304e-05
23 *1222:B1 *376:31 0.000143655
24 *1428:A *376:16 5.67058e-05
25 *69:8 *376:57 1.22803e-05
26 *192:14 *1209:A 3.22467e-05
27 *200:14 *376:22 0
28 *202:10 *376:57 0
29 *242:61 *376:8 0.000141879
30 *371:37 *376:22 0
31 *375:45 *376:22 0
32 *375:71 *376:22 2.76611e-06
*RES
1 *1320:Q *376:8 39.9057 
2 *376:8 *376:10 15 
3 *376:10 *376:16 11.745 
4 *376:16 *376:22 32.61 
5 *376:22 *1219:B1 23 
6 *376:16 *376:31 3.97714 
7 *376:31 *376:33 0.621429 
8 *376:33 *1209:A 27.1221 
9 *376:33 *1222:A3 23 
10 *376:31 *376:57 35.5721 
11 *376:57 *1221:C 23 
12 *376:10 *1427:A 24.5743 
*END

*D_NET *377 0.00270249
*CONN
*I *1425:A I *D sky130_fd_sc_hd__dlygate4sd3_1
*I *1209:D_N I *D sky130_fd_sc_hd__or4b_2
*I *1221:D I *D sky130_fd_sc_hd__and4_2
*I *1321:Q O *D sky130_fd_sc_hd__dfxtp_2
*CAP
1 *1425:A 5.56181e-05
2 *1209:D_N 0.000289077
3 *1221:D 0
4 *1321:Q 0.000485952
5 *377:28 0.000344695
6 *377:26 0.000110804
7 *377:10 0.000375149
8 *1209:A *1209:D_N 9.32114e-05
9 *1222:B1 *1209:D_N 0.000143655
10 *69:8 *377:10 8.85189e-05
11 *200:14 *377:26 0
12 *202:10 *1209:D_N 5.50106e-05
13 *240:77 *377:10 0.00023877
14 *371:37 *377:26 0
15 *376:16 *1209:D_N 9.84794e-05
16 *376:16 *1425:A 0.00014196
17 *376:31 *1209:D_N 7.34709e-05
18 *376:33 *1209:D_N 2.18409e-05
19 *376:57 *1209:D_N 0
20 *376:57 *377:10 8.62783e-05
*RES
1 *1321:Q *377:10 44.1107 
2 *377:10 *1221:D 38 
3 *1321:Q *377:26 39.9057 
4 *377:26 *377:28 15 
5 *377:28 *1209:D_N 29.8357 
6 *377:28 *1425:A 24.5743 
*END

*D_NET *378 0.00573895
*CONN
*I *1231:A I *D sky130_fd_sc_hd__and4_2
*I *1209:B I *D sky130_fd_sc_hd__or4b_2
*I *1227:A I *D sky130_fd_sc_hd__and3_2
*I *1421:A I *D sky130_fd_sc_hd__dlygate4sd3_1
*I *1228:A1 I *D sky130_fd_sc_hd__a21o_2
*I *1225:A I *D sky130_fd_sc_hd__or2_2
*I *1322:Q O *D sky130_fd_sc_hd__dfxtp_2
*CAP
1 *1231:A 0.000264244
2 *1209:B 0.000178372
3 *1227:A 0
4 *1421:A 0.000177064
5 *1228:A1 0.000279524
6 *1225:A 8.03469e-05
7 *1322:Q 0.000635397
8 *378:65 0.000671357
9 *378:52 0.000228741
10 *378:50 0.000635397
11 *378:10 0.00045658
12 *378:6 0.000273772
13 *1209:B *379:22 2.93985e-05
14 *1209:B *379:26 5.19036e-05
15 *1231:A *379:22 0
16 *378:65 *379:10 4.6318e-06
17 *378:65 *379:22 0
18 *1226:A *1225:A 0.00010655
19 *1226:A *1228:A1 9.65946e-05
20 *1228:B1 *1228:A1 9.88259e-05
21 *1229:A_N *1228:A1 0.000143655
22 *1230:B *378:65 0
23 *1323:CLK *378:50 0.000173452
24 *1323:D *378:50 4.87572e-05
25 *71:10 *1228:A1 7.27085e-05
26 *192:14 *1231:A 0
27 *201:28 *1228:A1 5.56356e-05
28 *201:28 *378:50 4.89774e-05
29 *201:30 *1421:A 9.84851e-05
30 *201:45 *1421:A 5.19173e-05
31 *201:45 *378:10 8.51432e-05
32 *201:67 *378:65 1.8788e-05
33 *240:51 *1421:A 0.000166532
34 *240:73 *1421:A 9.84851e-05
35 *240:73 *378:65 0.000188927
36 *263:33 *1421:A 0
37 *263:33 *378:10 0
38 *263:39 *1228:A1 3.17963e-05
39 *263:39 *378:10 0
40 *263:61 *1228:A1 0.000157657
41 *332:10 *378:65 2.93335e-05
*RES
1 *1322:Q *378:6 38 
2 *378:6 *378:10 17.2579 
3 *378:10 *1225:A 25.0507 
4 *378:10 *1228:A1 30.9336 
5 *378:6 *1421:A 42.7643 
6 *1322:Q *378:50 46.845 
7 *378:50 *378:52 15 
8 *378:52 *1227:A 23 
9 *378:52 *378:65 19.8057 
10 *378:65 *1209:B 40.5271 
11 *378:65 *1231:A 42.4121 
*END

*D_NET *379 0.00249784
*CONN
*I *1426:A I *D sky130_fd_sc_hd__dlygate4sd3_1
*I *1209:C I *D sky130_fd_sc_hd__or4b_2
*I *1231:B I *D sky130_fd_sc_hd__and4_2
*I *1227:B I *D sky130_fd_sc_hd__and3_2
*I *1323:Q O *D sky130_fd_sc_hd__dfxtp_2
*CAP
1 *1426:A 0
2 *1209:C 0
3 *1231:B 0.000155655
4 *1227:B 0.000122973
5 *1323:Q 0.000151284
6 *379:26 0.00052162
7 *379:22 0.000498683
8 *379:14 0.000324398
9 *379:10 0.000219992
10 *1231:B *1230:A 8.50366e-05
11 *1231:B *1231:C 6.17437e-06
12 *1209:B *379:22 2.93985e-05
13 *1209:B *379:26 5.19036e-05
14 *1230:B *1227:B 0.000130312
15 *1231:A *379:22 0
16 *201:67 *1231:B 1.27508e-05
17 *240:73 *379:14 0.000142173
18 *332:10 *379:10 4.08537e-05
19 *378:65 *379:10 4.6318e-06
20 *378:65 *379:22 0
*RES
1 *1323:Q *379:10 40.5271 
2 *379:10 *379:14 16.5743 
3 *379:14 *379:22 34.4121 
4 *379:22 *379:26 18.9564 
5 *379:26 *1227:B 41.0243 
6 *379:26 *1231:B 40.5271 
7 *379:22 *1209:C 23 
8 *379:14 *1426:A 23 
*END

*D_NET *380 0.00213977
*CONN
*I *1211:A I *D sky130_fd_sc_hd__or4_2
*I *1231:C I *D sky130_fd_sc_hd__and4_2
*I *1230:A I *D sky130_fd_sc_hd__or2_2
*I *1324:Q O *D sky130_fd_sc_hd__dfxtp_2
*CAP
1 *1211:A 0.000108056
2 *1231:C 4.1877e-05
3 *1230:A 0.000183308
4 *1324:Q 0.000240398
5 *380:10 0.000440911
6 *380:8 0.000564181
7 *1230:B *1230:A 5.56356e-05
8 *1231:B *1230:A 8.50366e-05
9 *1231:B *1231:C 6.17437e-06
10 *1232:C *1230:A 0
11 *72:10 *1230:A 0
12 *72:10 *380:10 0
13 *201:67 *1230:A 4.08537e-05
14 *201:67 *1231:C 6.17437e-06
15 *263:97 *380:8 0.000367166
*RES
1 *1324:Q *380:8 41.9564 
2 *380:8 *380:10 4.01857 
3 *380:10 *1230:A 41.5007 
4 *380:10 *1231:C 38.6214 
5 *380:8 *1211:A 39.9057 
*END

*D_NET *381 0.00430577
*CONN
*I *1239:A I *D sky130_fd_sc_hd__and4_2
*I *1211:B I *D sky130_fd_sc_hd__or4_2
*I *1236:A1 I *D sky130_fd_sc_hd__a21o_2
*I *1237:A I *D sky130_fd_sc_hd__and3_2
*I *1233:A I *D sky130_fd_sc_hd__or2_2
*I *1423:A I *D sky130_fd_sc_hd__dlygate4sd3_1
*I *1325:Q O *D sky130_fd_sc_hd__dfxtp_2
*CAP
1 *1239:A 6.31919e-05
2 *1211:B 0.000117222
3 *1236:A1 0.000284752
4 *1237:A 0
5 *1233:A 0.00020423
6 *1423:A 0
7 *1325:Q 0.00042291
8 *381:65 0.000631731
9 *381:45 0.000317999
10 *381:43 0.000676197
11 *381:28 0.000579469
12 *381:10 0.000239304
13 *1211:B *382:44 0.000108703
14 *1236:A1 *1237:B 6.70982e-06
15 *1239:A *382:44 3.88725e-05
16 *381:43 *1237:B 6.10574e-05
17 *381:45 *1237:B 1.93792e-05
18 *381:65 *1237:B 6.89359e-06
19 *1236:A2 *1236:A1 0.000186032
20 *1237:C *1236:A1 5.58003e-05
21 *1324:CLK *381:10 2.97099e-05
22 *1327:D *381:65 6.01634e-05
23 *75:8 *1211:B 8.0612e-06
24 *75:8 *1239:A 2.76184e-05
25 *240:32 *381:10 3.71887e-05
26 *240:32 *381:28 5.76359e-05
27 *240:47 *381:10 0
28 *263:97 *381:10 6.49363e-05
*RES
1 *1325:Q *381:10 41.9564 
2 *381:10 *1423:A 38 
3 *1325:Q *381:28 41.0036 
4 *381:28 *1233:A 41.48 
5 *381:28 *381:43 19.0496 
6 *381:43 *381:45 0.859643 
7 *381:45 *1237:A 23 
8 *381:45 *1236:A1 27.4536 
9 *381:43 *381:65 21.1211 
10 *381:65 *1211:B 40.9621 
11 *381:65 *1239:A 39.5536 
*END

*D_NET *382 0.00282936
*CONN
*I *1211:C I *D sky130_fd_sc_hd__or4_2
*I *1239:B I *D sky130_fd_sc_hd__and4_2
*I *1431:A I *D sky130_fd_sc_hd__dlygate4sd3_1
*I *1237:B I *D sky130_fd_sc_hd__and3_2
*I *1326:Q O *D sky130_fd_sc_hd__dfxtp_2
*CAP
1 *1211:C 0
2 *1239:B 0.000429414
3 *1431:A 0
4 *1237:B 0.00040422
5 *1326:Q 0.000183715
6 *382:44 0.000216524
7 *382:23 0.00021289
8 *382:10 0.000587936
9 *1211:B *382:44 0.000108703
10 *1236:A1 *1237:B 6.70982e-06
11 *1237:C *1237:B 3.34276e-06
12 *1239:A *382:44 3.88725e-05
13 *1327:CLK *1237:B 3.13952e-05
14 *1363:A *382:10 0
15 *75:8 *382:10 0
16 *197:29 *382:10 1.94693e-05
17 *208:45 *1239:B 0.000498838
18 *208:45 *382:10 0
19 *263:113 *382:10 0
20 *381:43 *1237:B 6.10574e-05
21 *381:45 *1237:B 1.93792e-05
22 *381:65 *1237:B 6.89359e-06
*RES
1 *1326:Q *382:10 40.8793 
2 *382:10 *1237:B 44.67 
3 *382:10 *382:23 15 
4 *382:23 *1431:A 23 
5 *382:23 *1239:B 28.3857 
6 *1239:B *382:44 42.7229 
7 *382:44 *1211:C 38 
*END

*D_NET *383 0.00272814
*CONN
*I *1375:A I *D sky130_fd_sc_hd__dlygate4sd3_1
*I *1239:C I *D sky130_fd_sc_hd__and4_2
*I *1211:D I *D sky130_fd_sc_hd__or4_2
*I *1327:Q O *D sky130_fd_sc_hd__dfxtp_2
*CAP
1 *1375:A 0.000184773
2 *1239:C 0.000188655
3 *1211:D 0.000478157
4 *1327:Q 0.000131542
5 *383:21 0.000466661
6 *383:8 0.000702932
7 *194:10 *1211:D 7.70117e-05
8 *195:14 *1211:D 4.80427e-05
9 *195:14 *383:21 1.00084e-05
10 *208:45 *1239:C 3.22051e-05
11 *213:6 *1239:C 0.000233359
12 *240:22 *1211:D 0.000174789
*RES
1 *1327:Q *383:8 39.5743 
2 *383:8 *1211:D 47.7564 
3 *383:8 *383:21 1.55357 
4 *383:21 *1239:C 41.9564 
5 *383:21 *1375:A 41.3143 
*END

*D_NET *384 0.00941686
*CONN
*I *1081:S0 I *D sky130_fd_sc_hd__mux4_2
*I *1254:A2 I *D sky130_fd_sc_hd__a311o_2
*I *1253:A1 I *D sky130_fd_sc_hd__a21oi_2
*I *1257:A3 I *D sky130_fd_sc_hd__a31o_2
*I *1256:A2 I *D sky130_fd_sc_hd__a31o_2
*I *1079:S0 I *D sky130_fd_sc_hd__mux4_2
*I *1251:B1_N I *D sky130_fd_sc_hd__o21ba_2
*I *1419:A I *D sky130_fd_sc_hd__dlygate4sd3_1
*I *1331:Q O *D sky130_fd_sc_hd__dfxtp_2
*CAP
1 *1081:S0 0.000360968
2 *1254:A2 3.13236e-05
3 *1253:A1 0
4 *1257:A3 0
5 *1256:A2 0
6 *1079:S0 0.00113434
7 *1251:B1_N 0.000318831
8 *1419:A 0
9 *1331:Q 7.17459e-05
10 *384:72 0.000157576
11 *384:64 0.000275246
12 *384:62 0.000157786
13 *384:33 0.00112003
14 *384:29 0.000213743
15 *384:27 0.000510295
16 *384:8 0.000404918
17 *1079:S0 *1257:A1 0.000141468
18 *1079:S0 *385:53 0.000135081
19 *1079:S0 *386:12 0.000142147
20 *1079:S0 *386:42 0.000661937
21 *1081:S0 *386:52 0.000205241
22 *1081:S0 *394:18 0.000196549
23 *1254:A2 *385:12 5.67058e-05
24 *384:29 *385:12 8.48502e-06
25 *384:64 *1257:A1 4.93812e-05
26 *384:72 *385:33 8.62783e-05
27 *1083:A1 *384:72 0.000114092
28 *1083:A2 *384:72 8.06804e-06
29 *1252:A2 *384:8 0
30 *1252:A2 *384:27 0
31 *1252:B1 *1251:B1_N 7.43114e-05
32 *1253:A2 *384:29 3.45774e-05
33 *1254:A3 *1254:A2 2.02517e-05
34 *1254:A3 *384:29 0.000255642
35 *1257:B1 *384:64 0.000188934
36 *3:22 *384:27 1.84241e-05
37 *79:10 *1251:B1_N 7.53384e-06
38 *100:12 *384:27 7.52434e-05
39 *105:21 *1079:S0 0
40 *105:21 *1251:B1_N 0
41 *105:21 *384:72 3.47781e-05
42 *106:8 *1081:S0 0
43 *195:50 *1251:B1_N 0
44 *219:35 *1079:S0 0
45 *219:35 *1251:B1_N 0
46 *219:56 *1254:A2 3.623e-05
47 *219:56 *384:27 0.000112705
48 *220:23 *384:29 0.000128723
49 *220:40 *384:72 1.75792e-05
50 *220:71 *384:33 5.50106e-05
51 *220:71 *384:64 0.000364798
52 *239:33 *1251:B1_N 0.000115382
53 *248:18 *384:27 0.000121779
54 *248:18 *384:29 0.000552151
55 *248:18 *384:33 0.00014196
56 *273:97 *1251:B1_N 0.00013449
57 *273:105 *384:8 0.00014411
58 *273:105 *384:27 0.000220001
*RES
1 *1331:Q *384:8 39.9057 
2 *384:8 *1419:A 38 
3 *384:8 *384:27 23.1407 
4 *384:27 *384:29 6.33857 
5 *384:29 *384:33 16.5743 
6 *384:33 *1251:B1_N 44.6493 
7 *384:33 *1079:S0 31.8718 
8 *384:29 *384:62 0.849286 
9 *384:62 *384:64 4.90929 
10 *384:64 *384:72 33.0036 
11 *384:72 *1256:A2 23 
12 *384:64 *1257:A3 23 
13 *384:62 *1253:A1 23 
14 *384:27 *1254:A2 24.4707 
15 *1079:S0 *1081:S0 38.2443 
*END

*D_NET *385 0.00411398
*CONN
*I *1398:A I *D sky130_fd_sc_hd__dlygate4sd3_1
*I *1082:S I *D sky130_fd_sc_hd__mux2_1
*I *1256:A1 I *D sky130_fd_sc_hd__a31o_2
*I *1257:A2 I *D sky130_fd_sc_hd__a31o_2
*I *1254:A1 I *D sky130_fd_sc_hd__a311o_2
*I *1332:Q O *D sky130_fd_sc_hd__dfxtp_2
*CAP
1 *1398:A 0
2 *1082:S 0
3 *1256:A1 0
4 *1257:A2 0
5 *1254:A1 0
6 *1332:Q 0
7 *385:53 0.000296604
8 *385:33 0.000169879
9 *385:25 0.00040129
10 *385:21 0.000805045
11 *385:12 0.000207384
12 *385:4 0.000484413
13 *385:53 *386:42 0.000435013
14 *1079:S0 *385:53 0.000135081
15 *1254:A2 *385:12 5.67058e-05
16 *1254:A3 *385:12 0.000123934
17 *219:27 *385:53 2.93845e-05
18 *219:35 *385:53 0.00023812
19 *220:40 *385:21 0.000181125
20 *220:40 *385:25 6.99536e-05
21 *223:10 *385:12 0.000226546
22 *239:73 *385:12 3.21327e-05
23 *244:16 *385:53 0.000111852
24 *301:8 *385:12 1.47563e-05
25 *384:29 *385:12 8.48502e-06
26 *384:72 *385:33 8.62783e-05
*RES
1 *1332:Q *385:4 23 
2 *385:4 *385:12 35.0336 
3 *385:12 *1254:A1 23 
4 *385:4 *385:21 4.80571 
5 *385:21 *385:25 3.37643 
6 *385:25 *385:33 32.2993 
7 *385:33 *1257:A2 23 
8 *385:25 *1256:A1 23 
9 *385:21 *385:53 39.3629 
10 *385:53 *1082:S 23 
11 *385:21 *1398:A 23 
*END

*D_NET *386 0.00529225
*CONN
*I *1079:S1 I *D sky130_fd_sc_hd__mux4_2
*I *1081:S1 I *D sky130_fd_sc_hd__mux4_2
*I *1257:A1 I *D sky130_fd_sc_hd__a31o_2
*I *1256:B1 I *D sky130_fd_sc_hd__a31o_2
*I *1333:Q O *D sky130_fd_sc_hd__dfxtp_2
*CAP
1 *1079:S1 0
2 *1081:S1 0
3 *1257:A1 0.000248307
4 *1256:B1 0
5 *1333:Q 6.50725e-05
6 *386:52 0.000493443
7 *386:42 0.000919359
8 *386:12 0.000444512
9 *386:6 0.000687194
10 *386:52 *1079:A3 5.56356e-05
11 *386:52 *390:8 0.000133658
12 *386:52 *394:12 5.56279e-05
13 *386:52 *394:18 0.000222123
14 *1079:S0 *1257:A1 0.000141468
15 *1079:S0 *386:12 0.000142147
16 *1079:S0 *386:42 0.000661937
17 *1081:S0 *386:52 0.000205241
18 *1083:A1 *1257:A1 0
19 *1257:B1 *1257:A1 0.000102389
20 *1272:B *386:52 0
21 *18:9 *386:52 2.93335e-05
22 *106:8 *386:42 0.000110913
23 *219:10 *386:52 0
24 *219:35 *386:42 1.7992e-05
25 *219:67 *386:42 1.17152e-05
26 *244:16 *386:6 3.16784e-05
27 *244:16 *386:12 2.81066e-05
28 *268:79 *386:52 0
29 *384:64 *1257:A1 4.93812e-05
30 *385:53 *386:42 0.000435013
*RES
1 *1333:Q *386:6 24.0979 
2 *386:6 *386:12 18.7079 
3 *386:12 *1256:B1 38 
4 *386:12 *1257:A1 42.5779 
5 *386:6 *386:42 41.6207 
6 *386:42 *386:52 41.1443 
7 *386:52 *1081:S1 23 
8 *386:42 *1079:S1 23 
*END

*D_NET *387 0.00461856
*CONN
*I *1405:A I *D sky130_fd_sc_hd__dlygate4sd3_1
*I *1261:A1 I *D sky130_fd_sc_hd__a31o_2
*I *1263:A1 I *D sky130_fd_sc_hd__a31o_2
*I *1080:B I *D sky130_fd_sc_hd__or2_2
*I *1078:B I *D sky130_fd_sc_hd__nand2_2
*I *1084:B I *D sky130_fd_sc_hd__or2_2
*I *1334:Q O *D sky130_fd_sc_hd__dfxtp_2
*CAP
1 *1405:A 0
2 *1261:A1 0
3 *1263:A1 0.000222464
4 *1080:B 3.6708e-05
5 *1078:B 0
6 *1084:B 0.000142243
7 *1334:Q 6.12043e-05
8 *387:51 0.000492784
9 *387:18 0.000267589
10 *387:12 0.000249529
11 *387:10 0.000628001
12 *387:8 0.00033141
13 *387:10 *388:25 6.16531e-05
14 *387:12 *388:25 8.4047e-05
15 *387:18 *388:12 0
16 *1083:B1 *387:10 0
17 *1261:A2 *1263:A1 1.02245e-05
18 *1261:B1 *387:10 0
19 *1261:B1 *387:51 5.67058e-05
20 *1263:A3 *1263:A1 0.000209281
21 *1265:A2 *1084:B 0.00024064
22 *1265:A2 *387:18 5.67058e-05
23 *1265:B1 *1084:B 2.3853e-05
24 *92:21 *1080:B 5.3304e-05
25 *92:27 *387:12 1.01436e-05
26 *92:27 *387:18 0.000247687
27 *196:51 *1263:A1 1.02576e-05
28 *196:51 *387:10 7.75329e-06
29 *196:51 *387:12 1.06693e-05
30 *196:51 *387:51 8.96676e-05
31 *196:55 *1263:A1 1.42014e-05
32 *226:10 *387:8 4.48568e-05
33 *226:10 *387:10 6.88552e-05
34 *230:10 *387:10 2.46345e-05
35 *230:10 *387:12 0.000123172
36 *230:10 *387:18 0.000219882
37 *230:10 *387:51 5.3304e-05
38 *248:10 *387:8 0.000129504
39 *248:10 *387:10 0.000227497
40 *248:18 *387:10 8.62876e-05
41 *262:10 *387:18 2.18409e-05
42 *273:8 *387:10 0
*RES
1 *1334:Q *387:8 39.9057 
2 *387:8 *387:10 6.83571 
3 *387:10 *387:12 1.90571 
4 *387:12 *387:18 19.4121 
5 *387:18 *1084:B 27.2879 
6 *387:18 *1078:B 23 
7 *387:12 *1080:B 38.6214 
8 *387:10 *387:51 18.9564 
9 *387:51 *1263:A1 26.48 
10 *387:51 *1261:A1 23 
11 *387:8 *1405:A 38 
*END

*D_NET *388 0.00182248
*CONN
*I *1424:A I *D sky130_fd_sc_hd__dlygate4sd3_1
*I *1084:A I *D sky130_fd_sc_hd__or2_2
*I *1335:Q O *D sky130_fd_sc_hd__dfxtp_2
*CAP
1 *1424:A 0
2 *1084:A 0
3 *1335:Q 4.25104e-05
4 *388:25 0.000311998
5 *388:12 0.000161741
6 *388:6 0.000516249
7 *92:12 *388:6 5.50049e-05
8 *92:12 *388:25 8.34394e-05
9 *92:21 *388:25 0.000225393
10 *196:51 *388:25 6.68793e-05
11 *230:10 *388:12 0
12 *273:10 *388:12 0.00015192
13 *330:8 *388:12 6.16439e-05
14 *387:10 *388:25 6.16531e-05
15 *387:12 *388:25 8.4047e-05
16 *387:18 *388:12 0
*RES
1 *1335:Q *388:6 23.6214 
2 *388:6 *388:12 34.0186 
3 *388:12 *1084:A 23 
4 *388:6 *388:25 35.3857 
5 *388:25 *1424:A 23 
*END

*D_NET *389 0.00247277
*CONN
*I *1415:A I *D sky130_fd_sc_hd__dlygate4sd3_1
*I *1079:A0 I *D sky130_fd_sc_hd__mux4_2
*I *1336:Q O *D sky130_fd_sc_hd__dfxtp_2
*CAP
1 *1415:A 0.000203829
2 *1079:A0 0.000509586
3 *1336:Q 9.53785e-05
4 *389:8 0.000808793
5 *1267:A2 *1079:A0 8.82787e-05
6 *1267:A3 *1079:A0 9.45591e-05
7 *1267:C1 *1079:A0 0.000187129
8 *84:10 *1079:A0 5.50106e-05
9 *245:31 *1079:A0 3.58358e-05
10 *252:18 *1415:A 5.50106e-05
11 *268:31 *1079:A0 0.000128723
12 *268:46 *1415:A 6.95872e-05
13 *270:14 *1079:A0 0.000141052
14 *280:8 *1415:A 0
*RES
1 *1336:Q *389:8 39.5536 
2 *389:8 *1079:A0 49.1029 
3 *389:8 *1415:A 41.9357 
*END

*D_NET *390 0.00152181
*CONN
*I *1416:A I *D sky130_fd_sc_hd__dlygate4sd3_1
*I *1079:A1 I *D sky130_fd_sc_hd__mux4_2
*I *1337:Q O *D sky130_fd_sc_hd__dfxtp_2
*CAP
1 *1416:A 0
2 *1079:A1 0
3 *1337:Q 0.00010128
4 *390:18 0.000151082
5 *390:12 0.000261805
6 *390:8 0.000212003
7 *390:18 *394:18 0
8 *102:57 *390:12 0.000188967
9 *106:8 *390:18 0.000115808
10 *268:79 *390:12 0.000357208
11 *386:52 *390:8 0.000133658
*RES
1 *1337:Q *390:8 39.9057 
2 *390:8 *390:12 18.9564 
3 *390:12 *390:18 33.3143 
4 *390:18 *1079:A1 23 
5 *390:12 *1416:A 23 
*END

*D_NET *391 0.00385835
*CONN
*I *1417:A I *D sky130_fd_sc_hd__dlygate4sd3_1
*I *1081:A0 I *D sky130_fd_sc_hd__mux4_2
*I *1338:Q O *D sky130_fd_sc_hd__dfxtp_2
*CAP
1 *1417:A 0.000469564
2 *1081:A0 0
3 *1338:Q 0
4 *391:16 0.000512693
5 *391:6 0.000982257
6 *391:16 *1081:A1 9.91024e-05
7 *1266:B *391:16 0.000160113
8 *1270:A *391:16 5.64664e-05
9 *3:22 *391:16 9.06377e-05
10 *7:8 *1417:A 0.000154313
11 *17:9 *1417:A 0.000182832
12 *18:9 *1417:A 0
13 *18:9 *391:16 0.000223408
14 *219:71 *391:16 5.3304e-05
15 *233:10 *391:16 0.000301012
16 *270:14 *1417:A 7.48331e-05
17 *270:14 *391:16 0.000467275
18 *292:22 *1417:A 3.05343e-05
19 *292:22 *391:16 0
*RES
1 *1338:Q *391:6 38 
2 *391:6 *391:16 28.4643 
3 *391:16 *1081:A0 23 
4 *391:6 *1417:A 47.8186 
*END

*D_NET *392 0.0017158
*CONN
*I *1412:A I *D sky130_fd_sc_hd__dlygate4sd3_1
*I *1081:A1 I *D sky130_fd_sc_hd__mux4_2
*I *1339:Q O *D sky130_fd_sc_hd__dfxtp_2
*CAP
1 *1412:A 0.000175081
2 *1081:A1 0.000378862
3 *1339:Q 4.84341e-05
4 *392:8 0.000602378
5 *18:9 *1081:A1 0.000149318
6 *18:9 *1412:A 8.75601e-05
7 *87:10 *1412:A 0
8 *234:10 *1081:A1 0
9 *245:57 *392:8 1.39431e-05
10 *249:10 *1412:A 0
11 *268:79 *1081:A1 0.000161121
12 *391:16 *1081:A1 9.91024e-05
*RES
1 *1339:Q *392:8 38.6214 
2 *392:8 *1081:A1 45.7264 
3 *392:8 *1412:A 41.6664 
*END

*D_NET *393 0.00157887
*CONN
*I *1079:A2 I *D sky130_fd_sc_hd__mux4_2
*I *1410:A I *D sky130_fd_sc_hd__dlygate4sd3_1
*I *1340:Q O *D sky130_fd_sc_hd__dfxtp_2
*CAP
1 *1079:A2 0
2 *1410:A 0.000396118
3 *1340:Q 0.000251851
4 *393:22 0.000396118
5 *393:8 0.000251851
6 *393:22 *394:12 0.000144501
7 *1276:B *393:22 5.56356e-05
8 *236:10 *393:8 5.67058e-05
9 *236:10 *393:22 1.55671e-05
10 *315:10 *393:8 1.05235e-05
*RES
1 *1340:Q *393:8 27.4536 
2 *393:8 *1410:A 23 
3 *1410:A *393:22 28.7586 
4 *393:22 *1079:A2 23 
*END

*D_NET *394 0.00136863
*CONN
*I *1079:A3 I *D sky130_fd_sc_hd__mux4_2
*I *1409:A I *D sky130_fd_sc_hd__dlygate4sd3_1
*I *1341:Q O *D sky130_fd_sc_hd__dfxtp_2
*CAP
1 *1079:A3 2.8313e-05
2 *1409:A 0
3 *1341:Q 9.22194e-05
4 *394:18 9.50792e-05
5 *394:12 0.000228701
6 *394:8 0.000197528
7 *1081:S0 *394:18 0.000196549
8 *219:12 *394:8 4.2812e-06
9 *219:16 *394:8 4.80733e-05
10 *386:52 *1079:A3 5.56356e-05
11 *386:52 *394:12 5.56279e-05
12 *386:52 *394:18 0.000222123
13 *390:18 *394:18 0
14 *393:22 *394:12 0.000144501
*RES
1 *1341:Q *394:8 39.5536 
2 *394:8 *394:12 17.5271 
3 *394:12 *394:18 33.3143 
4 *394:18 *1409:A 23 
5 *394:12 *1079:A3 23.6214 
*END

*D_NET *395 0.00193974
*CONN
*I *1081:A2 I *D sky130_fd_sc_hd__mux4_2
*I *1408:A I *D sky130_fd_sc_hd__dlygate4sd3_1
*I *1342:Q O *D sky130_fd_sc_hd__dfxtp_2
*CAP
1 *1081:A2 0.000212399
2 *1408:A 3.38887e-05
3 *1342:Q 8.16343e-05
4 *395:10 0.000246287
5 *395:8 8.16343e-05
6 *1081:A2 *1081:A3 0.00031694
7 *1081:A2 *1411:A 9.84794e-05
8 *1279:B1 *1081:A2 0.000127609
9 *1279:B1 *1408:A 5.70419e-05
10 *1279:C1 *1081:A2 0.000221997
11 *1279:C1 *1408:A 0.000137618
12 *1281:A3 *395:8 5.21127e-05
13 *18:9 *1081:A2 0.000272101
14 *102:88 *395:8 0
*RES
1 *1342:Q *395:8 39.5536 
2 *395:8 *395:10 15 
3 *395:10 *1408:A 24.595 
4 *395:10 *1081:A2 30.2914 
*END

*D_NET *396 0.00177675
*CONN
*I *1081:A3 I *D sky130_fd_sc_hd__mux4_2
*I *1411:A I *D sky130_fd_sc_hd__dlygate4sd3_1
*I *1343:Q O *D sky130_fd_sc_hd__dfxtp_2
*CAP
1 *1081:A3 0.000171358
2 *1411:A 1.60486e-05
3 *1343:Q 0.000199327
4 *396:10 0.000187407
5 *396:8 0.000199327
6 *1081:A2 *1081:A3 0.00031694
7 *1081:A2 *1411:A 9.84794e-05
8 *1272:B *396:8 0
9 *1279:B1 *1081:A3 8.52481e-05
10 *1279:B1 *1411:A 0.00010018
11 *1281:C1 *396:8 8.97403e-05
12 *18:9 *1081:A3 7.40718e-05
13 *18:15 *396:8 0.000137788
14 *24:13 *396:8 5.08899e-05
15 *272:57 *396:8 1.86869e-05
16 *312:10 *1081:A3 1.21972e-05
17 *316:10 *1081:A3 1.90592e-05
*RES
1 *1343:Q *396:8 42.7229 
2 *396:8 *396:10 15 
3 *396:10 *1411:A 24.0979 
4 *396:10 *1081:A3 28.5514 
*END
