*SPEF "ieee 1481-1999"
*DESIGN "uart_top"
*DATE "10:08:07 Thursday August 20, 2026"
*VENDOR "The OpenROAD Project"
*PROGRAM "OpenROAD"
*VERSION "dcf36133a369abc8f3c5e5738cd4d82e4903c0e0"
*DESIGN_FLOW "NAME_SCOPE LOCAL" "PIN_CAP NONE"
*DIVIDER /
*DELIMITER :
*BUS_DELIMITER []
*T_UNIT 1 NS
*C_UNIT 1 PF
*R_UNIT 1 OHM
*L_UNIT 1 HENRY

*NAME_MAP
*3 clk
*4 reset
*5 rx
*6 rx_data[0]
*7 rx_data[1]
*8 rx_data[2]
*9 rx_data[3]
*10 rx_data[4]
*11 rx_data[5]
*12 rx_data[6]
*13 rx_data[7]
*14 rx_valid
*15 tx
*16 tx_busy
*17 tx_data[0]
*18 tx_data[1]
*19 tx_data[2]
*20 tx_data[3]
*21 tx_data[4]
*22 tx_data[5]
*23 tx_data[6]
*24 tx_data[7]
*25 tx_start
*26 _000_
*27 _001_
*28 _002_
*29 _003_
*30 _004_
*31 _005_
*32 _006_
*33 _007_
*34 _008_
*35 _009_
*36 _010_
*37 _011_
*38 _012_
*39 _013_
*40 _014_
*41 _015_
*42 _016_
*43 _017_
*44 _018_
*45 _019_
*46 _020_
*47 _021_
*48 _022_
*49 _023_
*50 _024_
*51 _025_
*52 _026_
*53 _027_
*54 _028_
*55 _029_
*56 _030_
*57 _031_
*58 _032_
*59 _033_
*60 _034_
*61 _035_
*62 _036_
*63 _037_
*64 _038_
*65 _039_
*66 _040_
*67 _041_
*68 _042_
*69 _043_
*70 _044_
*71 _045_
*72 _046_
*73 _047_
*74 _048_
*75 _049_
*76 _050_
*77 _051_
*78 _052_
*79 _053_
*80 _054_
*81 _055_
*82 _056_
*83 _057_
*84 _058_
*85 _059_
*86 _060_
*87 _061_
*88 _062_
*89 _063_
*90 _064_
*91 _065_
*92 _066_
*93 _067_
*94 _068_
*95 _069_
*96 _070_
*97 _071_
*98 _072_
*99 _073_
*100 _074_
*101 _075_
*102 _076_
*103 _077_
*104 _078_
*105 _079_
*106 _080_
*107 _081_
*108 _082_
*109 _083_
*110 _084_
*111 _085_
*112 _086_
*113 _087_
*114 _088_
*115 _089_
*116 _090_
*117 _091_
*118 _092_
*119 _093_
*120 _094_
*121 _095_
*122 _096_
*123 _097_
*124 _098_
*125 _099_
*126 _100_
*127 _101_
*128 _102_
*129 _103_
*130 _104_
*131 _105_
*132 _106_
*133 _107_
*134 _108_
*135 _109_
*136 _110_
*137 _111_
*138 _112_
*139 _113_
*140 _114_
*141 _115_
*142 _116_
*143 _117_
*144 _118_
*145 _119_
*146 _120_
*147 _121_
*148 _122_
*149 _123_
*150 _124_
*151 _125_
*152 _126_
*153 _127_
*154 _128_
*155 _129_
*156 _130_
*157 _131_
*158 _132_
*159 _133_
*160 _134_
*161 _135_
*162 _136_
*163 _137_
*164 _138_
*165 _139_
*166 _140_
*167 _141_
*168 _142_
*169 _143_
*170 _144_
*171 _145_
*172 _146_
*173 _147_
*174 _148_
*175 _149_
*176 _150_
*177 _151_
*178 _152_
*179 _153_
*180 _154_
*181 _155_
*182 _156_
*183 _157_
*184 _158_
*185 _159_
*186 _160_
*187 _161_
*188 _162_
*189 _163_
*190 _164_
*191 _165_
*192 _166_
*193 _167_
*194 _168_
*195 _169_
*196 _170_
*197 _171_
*198 _172_
*199 _173_
*200 _174_
*201 _175_
*202 _176_
*203 _177_
*204 _178_
*205 _179_
*206 _180_
*207 _181_
*208 _182_
*209 _183_
*210 _184_
*211 _185_
*212 _186_
*213 _187_
*214 _188_
*215 _189_
*216 _190_
*217 _191_
*218 _192_
*219 _193_
*220 _194_
*221 _195_
*222 _196_
*223 _197_
*224 _198_
*225 _199_
*226 _200_
*227 _201_
*228 _202_
*229 _203_
*230 _204_
*231 _205_
*232 _206_
*233 _207_
*234 _208_
*235 _209_
*236 _210_
*237 _211_
*238 _212_
*239 clknet_0_clk
*240 clknet_3_0__leaf_clk
*241 clknet_3_1__leaf_clk
*242 clknet_3_2__leaf_clk
*243 clknet_3_3__leaf_clk
*244 clknet_3_4__leaf_clk
*245 clknet_3_5__leaf_clk
*246 clknet_3_6__leaf_clk
*247 clknet_3_7__leaf_clk
*248 net1
*249 net10
*250 net11
*251 net12
*252 net13
*253 net14
*254 net15
*255 net16
*256 net17
*257 net18
*258 net19
*259 net2
*260 net20
*261 net21
*262 net22
*263 net23
*264 net24
*265 net25
*266 net26
*267 net27
*268 net28
*269 net29
*270 net3
*271 net30
*272 net31
*273 net32
*274 net33
*275 net34
*276 net35
*277 net36
*278 net37
*279 net38
*280 net39
*281 net4
*282 net40
*283 net41
*284 net42
*285 net43
*286 net44
*287 net45
*288 net46
*289 net47
*290 net48
*291 net49
*292 net5
*293 net50
*294 net51
*295 net52
*296 net53
*297 net54
*298 net55
*299 net56
*300 net57
*301 net58
*302 net59
*303 net6
*304 net60
*305 net61
*306 net62
*307 net63
*308 net64
*309 net65
*310 net66
*311 net67
*312 net68
*313 net69
*314 net7
*315 net70
*316 net71
*317 net72
*318 net73
*319 net74
*320 net75
*321 net76
*322 net77
*323 net78
*324 net79
*325 net8
*326 net80
*327 net81
*328 net82
*329 net83
*330 net84
*331 net85
*332 net86
*333 net87
*334 net88
*335 net89
*336 net9
*337 net90
*338 net91
*339 net92
*340 rx_inst\.baud_counter\[0\]
*341 rx_inst\.baud_counter\[10\]
*342 rx_inst\.baud_counter\[11\]
*343 rx_inst\.baud_counter\[12\]
*344 rx_inst\.baud_counter\[1\]
*345 rx_inst\.baud_counter\[2\]
*346 rx_inst\.baud_counter\[3\]
*347 rx_inst\.baud_counter\[4\]
*348 rx_inst\.baud_counter\[5\]
*349 rx_inst\.baud_counter\[6\]
*350 rx_inst\.baud_counter\[7\]
*351 rx_inst\.baud_counter\[8\]
*352 rx_inst\.baud_counter\[9\]
*353 rx_inst\.bit_counter\[0\]
*354 rx_inst\.bit_counter\[1\]
*355 rx_inst\.bit_counter\[2\]
*356 rx_inst\.rx_reg\[0\]
*357 rx_inst\.rx_reg\[1\]
*358 rx_inst\.rx_reg\[2\]
*359 rx_inst\.rx_reg\[3\]
*360 rx_inst\.rx_reg\[4\]
*361 rx_inst\.rx_reg\[5\]
*362 rx_inst\.rx_reg\[6\]
*363 rx_inst\.rx_reg\[7\]
*364 rx_inst\.rx_sync1
*365 rx_inst\.rx_sync2
*366 rx_inst\.rx_syncd
*367 rx_inst\.state\[0\]
*368 rx_inst\.state\[1\]
*369 rx_inst\.state\[2\]
*370 rx_inst\.state\[3\]
*371 tx_inst\.baud_counter\[0\]
*372 tx_inst\.baud_counter\[10\]
*373 tx_inst\.baud_counter\[11\]
*374 tx_inst\.baud_counter\[12\]
*375 tx_inst\.baud_counter\[1\]
*376 tx_inst\.baud_counter\[2\]
*377 tx_inst\.baud_counter\[3\]
*378 tx_inst\.baud_counter\[4\]
*379 tx_inst\.baud_counter\[5\]
*380 tx_inst\.baud_counter\[6\]
*381 tx_inst\.baud_counter\[7\]
*382 tx_inst\.baud_counter\[8\]
*383 tx_inst\.baud_counter\[9\]
*384 tx_inst\.bit_counter\[0\]
*385 tx_inst\.bit_counter\[1\]
*386 tx_inst\.bit_counter\[2\]
*387 tx_inst\.state\[0\]
*388 tx_inst\.state\[1\]
*389 tx_inst\.tx_reg\[0\]
*390 tx_inst\.tx_reg\[1\]
*391 tx_inst\.tx_reg\[2\]
*392 tx_inst\.tx_reg\[3\]
*393 tx_inst\.tx_reg\[4\]
*394 tx_inst\.tx_reg\[5\]
*395 tx_inst\.tx_reg\[6\]
*396 tx_inst\.tx_reg\[7\]
*397 FILLER_0_100
*398 FILLER_0_103
*399 FILLER_0_106
*400 FILLER_0_109
*401 FILLER_0_113
*402 FILLER_0_116
*403 FILLER_0_119
*404 FILLER_0_141
*405 FILLER_0_150
*406 FILLER_0_153
*407 FILLER_0_156
*408 FILLER_0_159
*409 FILLER_0_162
*410 FILLER_0_165
*411 FILLER_0_169
*412 FILLER_0_18
*413 FILLER_0_3
*414 FILLER_0_36
*415 FILLER_0_39
*416 FILLER_0_42
*417 FILLER_0_52
*418 FILLER_0_55
*419 FILLER_0_57
*420 FILLER_0_6
*421 FILLER_0_60
*422 FILLER_0_67
*423 FILLER_0_77
*424 FILLER_0_80
*425 FILLER_0_83
*426 FILLER_0_85
*427 FILLER_0_94
*428 FILLER_0_97
*429 FILLER_10_13
*430 FILLER_10_135
*431 FILLER_10_138
*432 FILLER_10_141
*433 FILLER_10_144
*434 FILLER_10_147
*435 FILLER_10_150
*436 FILLER_10_157
*437 FILLER_10_16
*438 FILLER_10_160
*439 FILLER_10_163
*440 FILLER_10_166
*441 FILLER_10_169
*442 FILLER_10_19
*443 FILLER_10_22
*444 FILLER_10_25
*445 FILLER_10_3
*446 FILLER_10_37
*447 FILLER_10_52
*448 FILLER_10_55
*449 FILLER_10_64
*450 FILLER_10_83
*451 FILLER_10_85
*452 FILLER_10_88
*453 FILLER_10_91
*454 FILLER_10_94
*455 FILLER_10_97
*456 FILLER_11_121
*457 FILLER_11_13
*458 FILLER_11_131
*459 FILLER_11_134
*460 FILLER_11_137
*461 FILLER_11_140
*462 FILLER_11_151
*463 FILLER_11_158
*464 FILLER_11_161
*465 FILLER_11_164
*466 FILLER_11_167
*467 FILLER_11_169
*468 FILLER_11_62
*469 FILLER_11_83
*470 FILLER_11_86
*471 FILLER_12_114
*472 FILLER_12_117
*473 FILLER_12_120
*474 FILLER_12_123
*475 FILLER_12_126
*476 FILLER_12_132
*477 FILLER_12_135
*478 FILLER_12_138
*479 FILLER_12_141
*480 FILLER_12_22
*481 FILLER_12_25
*482 FILLER_12_29
*483 FILLER_12_3
*484 FILLER_12_32
*485 FILLER_12_79
*486 FILLER_12_82
*487 FILLER_12_85
*488 FILLER_13_108
*489 FILLER_13_11
*490 FILLER_13_14
*491 FILLER_13_141
*492 FILLER_13_144
*493 FILLER_13_147
*494 FILLER_13_166
*495 FILLER_13_169
*496 FILLER_13_17
*497 FILLER_13_20
*498 FILLER_13_23
*499 FILLER_13_34
*500 FILLER_13_52
*501 FILLER_13_55
*502 FILLER_13_57
*503 FILLER_13_60
*504 FILLER_13_63
*505 FILLER_14_125
*506 FILLER_14_128
*507 FILLER_14_13
*508 FILLER_14_131
*509 FILLER_14_134
*510 FILLER_14_137
*511 FILLER_14_141
*512 FILLER_14_144
*513 FILLER_14_147
*514 FILLER_14_150
*515 FILLER_14_153
*516 FILLER_14_16
*517 FILLER_14_22
*518 FILLER_14_29
*519 FILLER_14_3
*520 FILLER_14_35
*521 FILLER_14_44
*522 FILLER_14_47
*523 FILLER_14_65
*524 FILLER_14_85
*525 FILLER_15_107
*526 FILLER_15_110
*527 FILLER_15_113
*528 FILLER_15_123
*529 FILLER_15_126
*530 FILLER_15_129
*531 FILLER_15_132
*532 FILLER_15_135
*533 FILLER_15_138
*534 FILLER_15_141
*535 FILLER_15_150
*536 FILLER_15_159
*537 FILLER_15_162
*538 FILLER_15_165
*539 FILLER_15_169
*540 FILLER_15_23
*541 FILLER_15_55
*542 FILLER_15_65
*543 FILLER_15_76
*544 FILLER_16_111
*545 FILLER_16_114
*546 FILLER_16_121
*547 FILLER_16_124
*548 FILLER_16_3
*549 FILLER_16_34
*550 FILLER_16_46
*551 FILLER_16_49
*552 FILLER_16_52
*553 FILLER_16_55
*554 FILLER_16_58
*555 FILLER_16_61
*556 FILLER_16_64
*557 FILLER_16_73
*558 FILLER_16_76
*559 FILLER_16_79
*560 FILLER_16_82
*561 FILLER_16_85
*562 FILLER_16_88
*563 FILLER_16_91
*564 FILLER_17_108
*565 FILLER_17_111
*566 FILLER_17_127
*567 FILLER_17_130
*568 FILLER_17_14
*569 FILLER_17_140
*570 FILLER_17_147
*571 FILLER_17_150
*572 FILLER_17_169
*573 FILLER_17_25
*574 FILLER_17_28
*575 FILLER_17_3
*576 FILLER_17_31
*577 FILLER_17_44
*578 FILLER_17_54
*579 FILLER_17_66
*580 FILLER_17_69
*581 FILLER_17_72
*582 FILLER_18_103
*583 FILLER_18_106
*584 FILLER_18_109
*585 FILLER_18_112
*586 FILLER_18_119
*587 FILLER_18_122
*588 FILLER_18_141
*589 FILLER_18_150
*590 FILLER_18_153
*591 FILLER_18_17
*592 FILLER_18_26
*593 FILLER_18_3
*594 FILLER_18_36
*595 FILLER_18_45
*596 FILLER_18_6
*597 FILLER_18_71
*598 FILLER_18_74
*599 FILLER_18_93
*600 FILLER_19_102
*601 FILLER_19_105
*602 FILLER_19_113
*603 FILLER_19_143
*604 FILLER_19_146
*605 FILLER_19_164
*606 FILLER_19_167
*607 FILLER_19_169
*608 FILLER_19_3
*609 FILLER_19_50
*610 FILLER_19_57
*611 FILLER_19_6
*612 FILLER_19_93
*613 FILLER_19_96
*614 FILLER_19_99
*615 FILLER_1_101
*616 FILLER_1_111
*617 FILLER_1_113
*618 FILLER_1_116
*619 FILLER_1_142
*620 FILLER_1_145
*621 FILLER_1_163
*622 FILLER_1_166
*623 FILLER_1_169
*624 FILLER_1_21
*625 FILLER_1_24
*626 FILLER_1_3
*627 FILLER_1_43
*628 FILLER_1_46
*629 FILLER_1_81
*630 FILLER_20_106
*631 FILLER_20_121
*632 FILLER_20_129
*633 FILLER_20_132
*634 FILLER_20_135
*635 FILLER_20_138
*636 FILLER_20_149
*637 FILLER_20_152
*638 FILLER_20_19
*639 FILLER_20_22
*640 FILLER_20_25
*641 FILLER_20_29
*642 FILLER_20_32
*643 FILLER_20_35
*644 FILLER_20_38
*645 FILLER_20_60
*646 FILLER_20_63
*647 FILLER_20_66
*648 FILLER_20_69
*649 FILLER_20_72
*650 FILLER_20_82
*651 FILLER_20_90
*652 FILLER_20_93
*653 FILLER_20_96
*654 FILLER_21_105
*655 FILLER_21_113
*656 FILLER_21_120
*657 FILLER_21_129
*658 FILLER_21_13
*659 FILLER_21_132
*660 FILLER_21_135
*661 FILLER_21_138
*662 FILLER_21_141
*663 FILLER_21_144
*664 FILLER_21_163
*665 FILLER_21_166
*666 FILLER_21_169
*667 FILLER_21_3
*668 FILLER_21_36
*669 FILLER_21_39
*670 FILLER_21_51
*671 FILLER_21_54
*672 FILLER_21_74
*673 FILLER_21_84
*674 FILLER_21_87
*675 FILLER_22_111
*676 FILLER_22_130
*677 FILLER_22_149
*678 FILLER_22_152
*679 FILLER_22_34
*680 FILLER_22_53
*681 FILLER_22_56
*682 FILLER_22_66
*683 FILLER_22_85
*684 FILLER_23_101
*685 FILLER_23_104
*686 FILLER_23_107
*687 FILLER_23_110
*688 FILLER_23_113
*689 FILLER_23_144
*690 FILLER_23_169
*691 FILLER_23_41
*692 FILLER_23_44
*693 FILLER_23_53
*694 FILLER_23_63
*695 FILLER_23_66
*696 FILLER_23_75
*697 FILLER_23_98
*698 FILLER_24_111
*699 FILLER_24_114
*700 FILLER_24_122
*701 FILLER_24_125
*702 FILLER_24_128
*703 FILLER_24_131
*704 FILLER_24_141
*705 FILLER_24_144
*706 FILLER_24_162
*707 FILLER_24_19
*708 FILLER_24_26
*709 FILLER_24_34
*710 FILLER_24_73
*711 FILLER_25_108
*712 FILLER_25_111
*713 FILLER_25_113
*714 FILLER_25_116
*715 FILLER_25_12
*716 FILLER_25_136
*717 FILLER_25_163
*718 FILLER_25_166
*719 FILLER_25_169
*720 FILLER_25_49
*721 FILLER_25_57
*722 FILLER_26_141
*723 FILLER_26_152
*724 FILLER_26_46
*725 FILLER_26_66
*726 FILLER_26_90
*727 FILLER_26_93
*728 FILLER_26_96
*729 FILLER_26_99
*730 FILLER_27_111
*731 FILLER_27_121
*732 FILLER_27_124
*733 FILLER_27_166
*734 FILLER_27_169
*735 FILLER_27_50
*736 FILLER_27_74
*737 FILLER_27_93
*738 FILLER_27_96
*739 FILLER_28_103
*740 FILLER_28_137
*741 FILLER_28_165
*742 FILLER_28_169
*743 FILLER_28_24
*744 FILLER_28_27
*745 FILLER_28_29
*746 FILLER_28_3
*747 FILLER_28_57
*748 FILLER_28_6
*749 FILLER_28_85
*750 FILLER_2_100
*751 FILLER_2_119
*752 FILLER_2_122
*753 FILLER_2_125
*754 FILLER_2_128
*755 FILLER_2_131
*756 FILLER_2_14
*757 FILLER_2_141
*758 FILLER_2_151
*759 FILLER_2_154
*760 FILLER_2_157
*761 FILLER_2_160
*762 FILLER_2_163
*763 FILLER_2_166
*764 FILLER_2_169
*765 FILLER_2_23
*766 FILLER_2_26
*767 FILLER_2_3
*768 FILLER_2_35
*769 FILLER_2_45
*770 FILLER_2_6
*771 FILLER_2_63
*772 FILLER_2_66
*773 FILLER_2_85
*774 FILLER_2_88
*775 FILLER_2_91
*776 FILLER_3_101
*777 FILLER_3_104
*778 FILLER_3_12
*779 FILLER_3_121
*780 FILLER_3_124
*781 FILLER_3_132
*782 FILLER_3_135
*783 FILLER_3_15
*784 FILLER_3_151
*785 FILLER_3_169
*786 FILLER_3_18
*787 FILLER_3_3
*788 FILLER_3_33
*789 FILLER_3_36
*790 FILLER_3_39
*791 FILLER_3_57
*792 FILLER_3_6
*793 FILLER_3_66
*794 FILLER_3_75
*795 FILLER_3_78
*796 FILLER_3_87
*797 FILLER_3_9
*798 FILLER_3_90
*799 FILLER_3_93
*800 FILLER_4_104
*801 FILLER_4_122
*802 FILLER_4_139
*803 FILLER_4_149
*804 FILLER_4_152
*805 FILLER_4_26
*806 FILLER_4_3
*807 FILLER_4_37
*808 FILLER_4_40
*809 FILLER_4_43
*810 FILLER_4_46
*811 FILLER_4_6
*812 FILLER_4_79
*813 FILLER_4_82
*814 FILLER_4_85
*815 FILLER_4_88
*816 FILLER_5_108
*817 FILLER_5_111
*818 FILLER_5_133
*819 FILLER_5_152
*820 FILLER_5_155
*821 FILLER_5_163
*822 FILLER_5_166
*823 FILLER_5_169
*824 FILLER_5_22
*825 FILLER_5_3
*826 FILLER_5_42
*827 FILLER_5_45
*828 FILLER_5_74
*829 FILLER_5_77
*830 FILLER_5_80
*831 FILLER_6_100
*832 FILLER_6_107
*833 FILLER_6_110
*834 FILLER_6_119
*835 FILLER_6_128
*836 FILLER_6_131
*837 FILLER_6_134
*838 FILLER_6_137
*839 FILLER_6_14
*840 FILLER_6_141
*841 FILLER_6_144
*842 FILLER_6_150
*843 FILLER_6_153
*844 FILLER_6_156
*845 FILLER_6_159
*846 FILLER_6_162
*847 FILLER_6_165
*848 FILLER_6_168
*849 FILLER_6_17
*850 FILLER_6_20
*851 FILLER_6_23
*852 FILLER_6_26
*853 FILLER_6_3
*854 FILLER_6_36
*855 FILLER_6_39
*856 FILLER_6_42
*857 FILLER_6_6
*858 FILLER_6_69
*859 FILLER_6_72
*860 FILLER_6_80
*861 FILLER_6_83
*862 FILLER_6_97
*863 FILLER_7_10
*864 FILLER_7_109
*865 FILLER_7_129
*866 FILLER_7_132
*867 FILLER_7_141
*868 FILLER_7_144
*869 FILLER_7_147
*870 FILLER_7_150
*871 FILLER_7_160
*872 FILLER_7_163
*873 FILLER_7_166
*874 FILLER_7_169
*875 FILLER_7_17
*876 FILLER_7_20
*877 FILLER_7_39
*878 FILLER_8_107
*879 FILLER_8_110
*880 FILLER_8_113
*881 FILLER_8_124
*882 FILLER_8_127
*883 FILLER_8_139
*884 FILLER_8_141
*885 FILLER_8_148
*886 FILLER_8_21
*887 FILLER_8_24
*888 FILLER_8_27
*889 FILLER_8_3
*890 FILLER_8_37
*891 FILLER_8_40
*892 FILLER_8_43
*893 FILLER_8_70
*894 FILLER_8_83
*895 FILLER_9_102
*896 FILLER_9_138
*897 FILLER_9_149
*898 FILLER_9_156
*899 FILLER_9_163
*900 FILLER_9_166
*901 FILLER_9_169
*902 FILLER_9_21
*903 FILLER_9_3
*904 FILLER_9_32
*905 FILLER_9_42
*906 FILLER_9_45
*907 FILLER_9_55
*908 FILLER_9_68
*909 FILLER_9_71
*910 FILLER_9_74
*911 FILLER_9_77
*912 FILLER_9_84
*913 FILLER_9_93
*914 FILLER_9_96
*915 FILLER_9_99
*916 PHY_EDGE_ROW_0_Left_29
*917 PHY_EDGE_ROW_0_Right_0
*918 PHY_EDGE_ROW_10_Left_39
*919 PHY_EDGE_ROW_10_Right_10
*920 PHY_EDGE_ROW_11_Left_40
*921 PHY_EDGE_ROW_11_Right_11
*922 PHY_EDGE_ROW_12_Left_41
*923 PHY_EDGE_ROW_12_Right_12
*924 PHY_EDGE_ROW_13_Left_42
*925 PHY_EDGE_ROW_13_Right_13
*926 PHY_EDGE_ROW_14_Left_43
*927 PHY_EDGE_ROW_14_Right_14
*928 PHY_EDGE_ROW_15_Left_44
*929 PHY_EDGE_ROW_15_Right_15
*930 PHY_EDGE_ROW_16_Left_45
*931 PHY_EDGE_ROW_16_Right_16
*932 PHY_EDGE_ROW_17_Left_46
*933 PHY_EDGE_ROW_17_Right_17
*934 PHY_EDGE_ROW_18_Left_47
*935 PHY_EDGE_ROW_18_Right_18
*936 PHY_EDGE_ROW_19_Left_48
*937 PHY_EDGE_ROW_19_Right_19
*938 PHY_EDGE_ROW_1_Left_30
*939 PHY_EDGE_ROW_1_Right_1
*940 PHY_EDGE_ROW_20_Left_49
*941 PHY_EDGE_ROW_20_Right_20
*942 PHY_EDGE_ROW_21_Left_50
*943 PHY_EDGE_ROW_21_Right_21
*944 PHY_EDGE_ROW_22_Left_51
*945 PHY_EDGE_ROW_22_Right_22
*946 PHY_EDGE_ROW_23_Left_52
*947 PHY_EDGE_ROW_23_Right_23
*948 PHY_EDGE_ROW_24_Left_53
*949 PHY_EDGE_ROW_24_Right_24
*950 PHY_EDGE_ROW_25_Left_54
*951 PHY_EDGE_ROW_25_Right_25
*952 PHY_EDGE_ROW_26_Left_55
*953 PHY_EDGE_ROW_26_Right_26
*954 PHY_EDGE_ROW_27_Left_56
*955 PHY_EDGE_ROW_27_Right_27
*956 PHY_EDGE_ROW_28_Left_57
*957 PHY_EDGE_ROW_28_Right_28
*958 PHY_EDGE_ROW_2_Left_31
*959 PHY_EDGE_ROW_2_Right_2
*960 PHY_EDGE_ROW_3_Left_32
*961 PHY_EDGE_ROW_3_Right_3
*962 PHY_EDGE_ROW_4_Left_33
*963 PHY_EDGE_ROW_4_Right_4
*964 PHY_EDGE_ROW_5_Left_34
*965 PHY_EDGE_ROW_5_Right_5
*966 PHY_EDGE_ROW_6_Left_35
*967 PHY_EDGE_ROW_6_Right_6
*968 PHY_EDGE_ROW_7_Left_36
*969 PHY_EDGE_ROW_7_Right_7
*970 PHY_EDGE_ROW_8_Left_37
*971 PHY_EDGE_ROW_8_Right_8
*972 PHY_EDGE_ROW_9_Left_38
*973 PHY_EDGE_ROW_9_Right_9
*974 TAP_TAPCELL_ROW_0_58
*975 TAP_TAPCELL_ROW_0_59
*976 TAP_TAPCELL_ROW_0_60
*977 TAP_TAPCELL_ROW_0_61
*978 TAP_TAPCELL_ROW_0_62
*979 TAP_TAPCELL_ROW_0_63
*980 TAP_TAPCELL_ROW_10_91
*981 TAP_TAPCELL_ROW_10_92
*982 TAP_TAPCELL_ROW_10_93
*983 TAP_TAPCELL_ROW_11_94
*984 TAP_TAPCELL_ROW_11_95
*985 TAP_TAPCELL_ROW_11_96
*986 TAP_TAPCELL_ROW_12_97
*987 TAP_TAPCELL_ROW_12_98
*988 TAP_TAPCELL_ROW_12_99
*989 TAP_TAPCELL_ROW_13_100
*990 TAP_TAPCELL_ROW_13_101
*991 TAP_TAPCELL_ROW_13_102
*992 TAP_TAPCELL_ROW_14_103
*993 TAP_TAPCELL_ROW_14_104
*994 TAP_TAPCELL_ROW_14_105
*995 TAP_TAPCELL_ROW_15_106
*996 TAP_TAPCELL_ROW_15_107
*997 TAP_TAPCELL_ROW_15_108
*998 TAP_TAPCELL_ROW_16_109
*999 TAP_TAPCELL_ROW_16_110
*1000 TAP_TAPCELL_ROW_16_111
*1001 TAP_TAPCELL_ROW_17_112
*1002 TAP_TAPCELL_ROW_17_113
*1003 TAP_TAPCELL_ROW_17_114
*1004 TAP_TAPCELL_ROW_18_115
*1005 TAP_TAPCELL_ROW_18_116
*1006 TAP_TAPCELL_ROW_18_117
*1007 TAP_TAPCELL_ROW_19_118
*1008 TAP_TAPCELL_ROW_19_119
*1009 TAP_TAPCELL_ROW_19_120
*1010 TAP_TAPCELL_ROW_1_64
*1011 TAP_TAPCELL_ROW_1_65
*1012 TAP_TAPCELL_ROW_1_66
*1013 TAP_TAPCELL_ROW_20_121
*1014 TAP_TAPCELL_ROW_20_122
*1015 TAP_TAPCELL_ROW_20_123
*1016 TAP_TAPCELL_ROW_21_124
*1017 TAP_TAPCELL_ROW_21_125
*1018 TAP_TAPCELL_ROW_21_126
*1019 TAP_TAPCELL_ROW_22_127
*1020 TAP_TAPCELL_ROW_22_128
*1021 TAP_TAPCELL_ROW_22_129
*1022 TAP_TAPCELL_ROW_23_130
*1023 TAP_TAPCELL_ROW_23_131
*1024 TAP_TAPCELL_ROW_23_132
*1025 TAP_TAPCELL_ROW_24_133
*1026 TAP_TAPCELL_ROW_24_134
*1027 TAP_TAPCELL_ROW_24_135
*1028 TAP_TAPCELL_ROW_25_136
*1029 TAP_TAPCELL_ROW_25_137
*1030 TAP_TAPCELL_ROW_25_138
*1031 TAP_TAPCELL_ROW_26_139
*1032 TAP_TAPCELL_ROW_26_140
*1033 TAP_TAPCELL_ROW_26_141
*1034 TAP_TAPCELL_ROW_27_142
*1035 TAP_TAPCELL_ROW_27_143
*1036 TAP_TAPCELL_ROW_27_144
*1037 TAP_TAPCELL_ROW_28_145
*1038 TAP_TAPCELL_ROW_28_146
*1039 TAP_TAPCELL_ROW_28_147
*1040 TAP_TAPCELL_ROW_28_148
*1041 TAP_TAPCELL_ROW_28_149
*1042 TAP_TAPCELL_ROW_28_150
*1043 TAP_TAPCELL_ROW_2_67
*1044 TAP_TAPCELL_ROW_2_68
*1045 TAP_TAPCELL_ROW_2_69
*1046 TAP_TAPCELL_ROW_3_70
*1047 TAP_TAPCELL_ROW_3_71
*1048 TAP_TAPCELL_ROW_3_72
*1049 TAP_TAPCELL_ROW_4_73
*1050 TAP_TAPCELL_ROW_4_74
*1051 TAP_TAPCELL_ROW_4_75
*1052 TAP_TAPCELL_ROW_5_76
*1053 TAP_TAPCELL_ROW_5_77
*1054 TAP_TAPCELL_ROW_5_78
*1055 TAP_TAPCELL_ROW_6_79
*1056 TAP_TAPCELL_ROW_6_80
*1057 TAP_TAPCELL_ROW_6_81
*1058 TAP_TAPCELL_ROW_7_82
*1059 TAP_TAPCELL_ROW_7_83
*1060 TAP_TAPCELL_ROW_7_84
*1061 TAP_TAPCELL_ROW_8_85
*1062 TAP_TAPCELL_ROW_8_86
*1063 TAP_TAPCELL_ROW_8_87
*1064 TAP_TAPCELL_ROW_9_88
*1065 TAP_TAPCELL_ROW_9_89
*1066 TAP_TAPCELL_ROW_9_90
*1067 _213_
*1068 _214_
*1069 _215_
*1070 _216_
*1071 _217_
*1072 _218_
*1073 _219_
*1074 _220_
*1075 _221_
*1076 _222_
*1077 _223_
*1078 _224_
*1079 _225_
*1080 _226_
*1081 _227_
*1082 _228_
*1083 _229_
*1084 _230_
*1085 _231_
*1086 _232_
*1087 _233_
*1088 _234_
*1089 _235_
*1090 _236_
*1091 _237_
*1092 _238_
*1093 _239_
*1094 _240_
*1095 _241_
*1096 _242_
*1097 _243_
*1098 _244_
*1099 _245_
*1100 _246_
*1101 _247_
*1102 _248_
*1103 _249_
*1104 _250_
*1105 _251_
*1106 _252_
*1107 _253_
*1108 _254_
*1109 _255_
*1110 _256_
*1111 _257_
*1112 _258_
*1113 _259_
*1114 _260_
*1115 _261_
*1116 _262_
*1117 _263_
*1118 _264_
*1119 _265_
*1120 _266_
*1121 _267_
*1122 _268_
*1123 _269_
*1124 _270_
*1125 _271_
*1126 _272_
*1127 _273_
*1128 _274_
*1129 _275_
*1130 _276_
*1131 _277_
*1132 _278_
*1133 _279_
*1134 _280_
*1135 _281_
*1136 _282_
*1137 _283_
*1138 _284_
*1139 _285_
*1140 _286_
*1141 _287_
*1142 _288_
*1143 _289_
*1144 _290_
*1145 _291_
*1146 _292_
*1147 _293_
*1148 _294_
*1149 _295_
*1150 _296_
*1151 _297_
*1152 _298_
*1153 _299_
*1154 _300_
*1155 _301_
*1156 _302_
*1157 _303_
*1158 _304_
*1159 _305_
*1160 _306_
*1161 _307_
*1162 _308_
*1163 _309_
*1164 _310_
*1165 _311_
*1166 _312_
*1167 _313_
*1168 _314_
*1169 _315_
*1170 _316_
*1171 _317_
*1172 _318_
*1173 _319_
*1174 _320_
*1175 _321_
*1176 _322_
*1177 _323_
*1178 _324_
*1179 _325_
*1180 _326_
*1181 _327_
*1182 _328_
*1183 _329_
*1184 _330_
*1185 _331_
*1186 _332_
*1187 _333_
*1188 _334_
*1189 _335_
*1190 _336_
*1191 _337_
*1192 _338_
*1193 _339_
*1194 _340_
*1195 _341_
*1196 _342_
*1197 _343_
*1198 _344_
*1199 _345_
*1200 _346_
*1201 _347_
*1202 _348_
*1203 _349_
*1204 _350_
*1205 _351_
*1206 _352_
*1207 _353_
*1208 _354_
*1209 _355_
*1210 _356_
*1211 _357_
*1212 _358_
*1213 _359_
*1214 _360_
*1215 _361_
*1216 _362_
*1217 _363_
*1218 _364_
*1219 _365_
*1220 _366_
*1221 _367_
*1222 _368_
*1223 _369_
*1224 _370_
*1225 _371_
*1226 _372_
*1227 _373_
*1228 _374_
*1229 _375_
*1230 _376_
*1231 _377_
*1232 _378_
*1233 _379_
*1234 _380_
*1235 _381_
*1236 _382_
*1237 _383_
*1238 _384_
*1239 _385_
*1240 _386_
*1241 _387_
*1242 _388_
*1243 _389_
*1244 _390_
*1245 _391_
*1246 _392_
*1247 _393_
*1248 _394_
*1249 _395_
*1250 _396_
*1251 _397_
*1252 _398_
*1253 _399_
*1254 _400_
*1255 _401_
*1256 _402_
*1257 _403_
*1258 _404_
*1259 _405_
*1260 _406_
*1261 _407_
*1262 _408_
*1263 _409_
*1264 _410_
*1265 _411_
*1266 _412_
*1267 _413_
*1268 _414_
*1269 _415_
*1270 _416_
*1271 _417_
*1272 _418_
*1273 _419_
*1274 _420_
*1275 _421_
*1276 _422_
*1277 _423_
*1278 _424_
*1279 _425_
*1280 _426_
*1281 _427_
*1282 _428_
*1283 _429_
*1284 _430_
*1285 _431_
*1286 _432_
*1287 _433_
*1288 _434_
*1289 _435_
*1290 _436_
*1291 _437_
*1292 _438_
*1293 _439_
*1294 _440_
*1295 _441_
*1296 _442_
*1297 _443_
*1298 _444_
*1299 _445_
*1300 _446_
*1301 _447_
*1302 _448_
*1303 _449_
*1304 _450_
*1305 _451_
*1306 _452_
*1307 _453_
*1308 _454_
*1309 _455_
*1310 _456_
*1311 _457_
*1312 _458_
*1313 _459_
*1314 _460_
*1315 _461_
*1316 _462_
*1317 _463_
*1318 _464_
*1319 _465_
*1320 _466_
*1321 _467_
*1322 _468_
*1323 _469_
*1324 _470_
*1325 _471_
*1326 _472_
*1327 _473_
*1328 _474_
*1329 _475_
*1330 _476_
*1331 _477_
*1332 _478_
*1333 _479_
*1334 _480_
*1335 _481_
*1336 _482_
*1337 _483_
*1338 _484_
*1339 _485_
*1340 _486_
*1341 _487_
*1342 _488_
*1343 _489_
*1344 _490_
*1345 _491_
*1346 _492_
*1347 _493_
*1348 clkbuf_0_clk
*1349 clkbuf_3_0__f_clk
*1350 clkbuf_3_1__f_clk
*1351 clkbuf_3_2__f_clk
*1352 clkbuf_3_3__f_clk
*1353 clkbuf_3_4__f_clk
*1354 clkbuf_3_5__f_clk
*1355 clkbuf_3_6__f_clk
*1356 clkbuf_3_7__f_clk
*1357 clkload0
*1358 clkload1
*1359 clkload2
*1360 clkload3
*1361 clkload4
*1362 clkload5
*1363 fanout23
*1364 fanout24
*1365 fanout25
*1366 fanout26
*1367 fanout27
*1368 fanout28
*1369 fanout29
*1370 fanout30
*1371 fanout31
*1372 fanout32
*1373 hold33
*1374 hold34
*1375 hold35
*1376 hold36
*1377 hold37
*1378 hold38
*1379 hold39
*1380 hold40
*1381 hold41
*1382 hold42
*1383 hold43
*1384 hold44
*1385 hold45
*1386 hold46
*1387 hold47
*1388 hold48
*1389 hold49
*1390 hold50
*1391 hold51
*1392 hold52
*1393 hold53
*1394 hold54
*1395 hold55
*1396 hold56
*1397 hold57
*1398 hold58
*1399 hold59
*1400 hold60
*1401 hold61
*1402 hold62
*1403 hold63
*1404 hold64
*1405 hold65
*1406 hold66
*1407 hold67
*1408 hold68
*1409 hold69
*1410 hold70
*1411 hold71
*1412 hold72
*1413 hold73
*1414 hold74
*1415 hold75
*1416 hold76
*1417 hold77
*1418 hold78
*1419 hold79
*1420 hold80
*1421 hold81
*1422 hold82
*1423 hold83
*1424 hold84
*1425 hold85
*1426 hold86
*1427 hold87
*1428 hold88
*1429 hold89
*1430 hold90
*1431 hold91
*1432 hold92
*1433 input1
*1434 input10
*1435 input11
*1436 input2
*1437 input3
*1438 input4
*1439 input5
*1440 input6
*1441 input7
*1442 input8
*1443 input9
*1444 output12
*1445 output13
*1446 output14
*1447 output15
*1448 output16
*1449 output17
*1450 output18
*1451 output19
*1452 output20
*1453 output21
*1454 output22

*PORTS
clk I
reset I
rx I
rx_data[0] O
rx_data[1] O
rx_data[2] O
rx_data[3] O
rx_data[4] O
rx_data[5] O
rx_data[6] O
rx_data[7] O
rx_valid O
tx O
tx_busy O
tx_data[0] I
tx_data[1] I
tx_data[2] I
tx_data[3] I
tx_data[4] I
tx_data[5] I
tx_data[6] I
tx_data[7] I
tx_start I

*D_NET *3 0.0104722
*CONN
*P clk I
*I *1348:A I *D sky130_fd_sc_hd__clkbuf_16
*CAP
1 clk 0.00396648
2 *1348:A 5.24093e-05
3 *3:30 0.00401889
4 *1348:A *1110:B1 7.16702e-05
5 *1348:A *1345:D 0.000121603
6 *3:30 tx_busy 0.000321192
7 *3:30 *1081:A0 9.41396e-05
8 *3:30 *1110:A2 4.95418e-06
9 *3:30 *1254:B1 0.000209011
10 *3:30 *1266:A 0
11 *3:30 *1267:A1 1.54751e-05
12 *3:30 *1267:B1 0.000179983
13 *3:30 *1271:A1 0.000135825
14 *3:30 *1271:B1 8.10286e-05
15 *3:30 *1297:CLK 0.000101126
16 *3:30 *1345:D 1.54205e-05
17 *3:30 *1371:A 0
18 *3:30 *1445:A 0
19 *3:30 *54:8 5.23787e-06
20 *3:30 *220:21 0
21 *3:30 *239:23 0
22 *3:30 *239:73 0.000441555
23 *3:30 *239:89 0.000582794
24 *3:30 *262:33 3.33518e-05
25 *3:30 *384:27 2.00655e-05
*RES
1 clk *3:30 32.9614 
2 *3:30 *1348:A 5.205 
*END

*D_NET *4 0.00155309
*CONN
*P reset I
*I *1433:A I *D sky130_fd_sc_hd__clkdlybuf4s25_1
*CAP
1 reset 0.000442867
2 *1433:A 0.000442867
3 *1433:A tx 0.000332779
4 *1433:A *1260:A1 0
5 *1433:A *1335:CLK 0.000150837
6 *1433:A *1435:A 0
7 *1433:A *102:10 0
8 *1433:A *244:39 0.000183738
9 *1433:A *250:10 0
*RES
1 reset *1433:A 9.2949 
*END

*D_NET *5 0.0008901
*CONN
*P rx I
*I *1436:A I *D sky130_fd_sc_hd__clkdlybuf4s25_1
*CAP
1 rx 0.00044505
2 *1436:A 0.00044505
*RES
1 rx *1436:A 9.11377 
*END

*D_NET *6 0.000953548
*CONN
*P rx_data[0] O
*I *1444:X O *D sky130_fd_sc_hd__clkdlybuf4s25_1
*CAP
1 rx_data[0] 0.000476774
2 *1444:X 0.000476774
3 rx_data[0] *1444:A 0
*RES
1 *1444:X rx_data[0] 7.2959 
*END

*D_NET *7 0.00304855
*CONN
*P rx_data[1] O
*I *1445:X O *D sky130_fd_sc_hd__clkdlybuf4s25_1
*CAP
1 rx_data[1] 0.000866547
2 *1445:X 0.000866547
3 rx_data[1] rx_data[5] 0.000584849
4 rx_data[1] rx_data[6] 0.000498253
5 rx_data[1] *1271:A1 4.66108e-05
6 rx_data[1] *1383:A 1.83847e-05
7 rx_data[1] *1417:A 0.000155366
8 rx_data[1] *1437:A 1.19928e-05
*RES
1 *1445:X rx_data[1] 21.5775 
*END

*D_NET *8 0.00132184
*CONN
*P rx_data[2] O
*I *1446:X O *D sky130_fd_sc_hd__clkdlybuf4s25_1
*CAP
1 rx_data[2] 0.000622873
2 *1446:X 0.000622873
3 rx_data[2] *159:76 7.60965e-05
*RES
1 *1446:X rx_data[2] 14.3325 
*END

*D_NET *9 0.0029344
*CONN
*P rx_data[3] O
*I *1447:X O *D sky130_fd_sc_hd__clkdlybuf4s25_1
*CAP
1 rx_data[3] 0.00113972
2 *1447:X 0.00113972
3 rx_data[3] *1163:C1 8.49205e-05
4 rx_data[3] *269:66 0.000570045
*RES
1 *1447:X rx_data[3] 15.2724 
*END

*D_NET *10 0.00242313
*CONN
*P rx_data[4] O
*I *1448:X O *D sky130_fd_sc_hd__clkdlybuf4s25_1
*CAP
1 rx_data[4] 0.000847254
2 *1448:X 0.000847254
3 rx_data[4] *1164:A 0.00012345
4 rx_data[4] *1390:A 0.00010491
5 rx_data[4] *1448:A 0.000324208
6 rx_data[4] *158:31 0
7 rx_data[4] *255:10 0.000127757
8 rx_data[4] *295:8 4.82919e-05
*RES
1 *1448:X rx_data[4] 14.3424 
*END

*D_NET *11 0.00242289
*CONN
*P rx_data[5] O
*I *1449:X O *D sky130_fd_sc_hd__clkdlybuf4s25_1
*CAP
1 rx_data[5] 0.000810919
2 *1449:X 0.000810919
3 rx_data[5] rx_data[6] 4.99619e-05
4 rx_data[5] *1171:C1 4.43682e-05
5 rx_data[5] *1450:A 7.35813e-05
6 rx_data[5] *159:76 4.82919e-05
7 rx_data[1] rx_data[5] 0.000584849
*RES
1 *1449:X rx_data[5] 20.4525 
*END

*D_NET *12 0.00134092
*CONN
*P rx_data[6] O
*I *1450:X O *D sky130_fd_sc_hd__clkdlybuf4s25_1
*CAP
1 rx_data[6] 0.000396353
2 *1450:X 0.000396353
3 rx_data[1] rx_data[6] 0.000498253
4 rx_data[5] rx_data[6] 4.99619e-05
*RES
1 *1450:X rx_data[6] 13.6425 
*END

*D_NET *13 0.002478
*CONN
*P rx_data[7] O
*I *1451:X O *D sky130_fd_sc_hd__clkdlybuf4s25_1
*CAP
1 rx_data[7] 0.000926739
2 *1451:X 0.000926739
3 rx_data[7] *159:89 0.000624524
*RES
1 *1451:X rx_data[7] 18.8175 
*END

*D_NET *14 0.00104949
*CONN
*P rx_valid O
*I *1452:X O *D sky130_fd_sc_hd__clkdlybuf4s25_1
*CAP
1 rx_valid 0.000424504
2 *1452:X 0.000424504
3 rx_valid *1452:A 0.000200486
*RES
1 *1452:X rx_valid 7.2959 
*END

*D_NET *15 0.00161151
*CONN
*P tx O
*I *1453:X O *D sky130_fd_sc_hd__clkdlybuf4s25_1
*CAP
1 tx 0.000570803
2 *1453:X 0.000570803
3 tx *1335:CLK 2.56523e-05
4 tx *1435:A 0
5 tx *244:39 6.31804e-05
6 tx *248:10 4.82919e-05
7 *1433:A tx 0.000332779
*RES
1 *1453:X tx 11.2368 
*END

*D_NET *16 0.00208831
*CONN
*P tx_busy O
*I *1454:X O *D sky130_fd_sc_hd__clkdlybuf4s25_1
*CAP
1 tx_busy 0.000699894
2 *1454:X 0.000699894
3 tx_busy *1277:A1 1.4399e-05
4 tx_busy *1279:A1 0
5 tx_busy *1342:CLK 0.000106819
6 tx_busy *1342:D 5.39718e-05
7 tx_busy *1443:A 0.000192142
8 tx_busy *265:54 0
9 *3:30 tx_busy 0.000321192
*RES
1 *1454:X tx_busy 12.9584 
*END

*D_NET *17 0.00192287
*CONN
*P tx_data[0] I
*I *1437:A I *D sky130_fd_sc_hd__clkdlybuf4s25_1
*CAP
1 tx_data[0] 0.00045954
2 *1437:A 0.00045954
3 *1437:A *1267:A1 5.05437e-05
4 *1437:A *1271:A1 7.28419e-05
5 *1437:A *1417:A 0.000160641
6 *1437:A *1439:A 0.000707772
7 rx_data[1] *1437:A 1.19928e-05
*RES
1 tx_data[0] *1437:A 16.4775 
*END

*D_NET *18 0.00424625
*CONN
*P tx_data[1] I
*I *1438:A I *D sky130_fd_sc_hd__clkdlybuf4s25_1
*CAP
1 tx_data[1] 0.00148302
2 *1438:A 0.00148302
3 *1438:A *1081:A0 0.000194962
4 *1438:A *1081:A1 0.000141458
5 *1438:A *1081:A2 0.000238403
6 *1438:A *1081:A3 6.60042e-05
7 *1438:A *1081:S1 2.68464e-05
8 *1438:A *1267:A1 0
9 *1438:A *1268:B 0.000308364
10 *1438:A *1272:B 0
11 *1438:A *1337:D 7.23602e-05
12 *1438:A *1412:A 8.98727e-05
13 *1438:A *1417:A 0
14 *1438:A *1434:A 5.53249e-06
15 *1438:A *1439:A 0
16 *1438:A *1440:A 0
17 *1438:A *245:55 9.387e-06
18 *1438:A *268:79 1.1561e-05
19 *1438:A *396:10 0.000115464
*RES
1 tx_data[1] *1438:A 32.7325 
*END

*D_NET *19 0.00268799
*CONN
*P tx_data[2] I
*I *1439:A I *D sky130_fd_sc_hd__clkdlybuf4s25_1
*CAP
1 tx_data[2] 0.000631275
2 *1439:A 0.000631275
3 *1439:A *1267:A1 0.000109101
4 *1439:A *1271:A1 0.000454724
5 *1439:A *1272:A 2.93678e-05
6 *1439:A *1440:A 0.000124471
7 *1437:A *1439:A 0.000707772
8 *1438:A *1439:A 0
*RES
1 tx_data[2] *1439:A 21.4125 
*END

*D_NET *20 0.00331464
*CONN
*P tx_data[3] I
*I *1440:A I *D sky130_fd_sc_hd__clkdlybuf4s25_1
*CAP
1 tx_data[3] 0.000980219
2 *1440:A 0.000980219
3 *1440:A *1271:A1 0.00038697
4 *1440:A *1272:A 9.80943e-06
5 *1440:A *1281:A1 0.000768754
6 *1440:A *1281:A2 1.34594e-05
7 *1440:A *102:92 5.07419e-05
8 *1438:A *1440:A 0
9 *1439:A *1440:A 0.000124471
*RES
1 tx_data[3] *1440:A 23.8275 
*END

*D_NET *21 0.00141994
*CONN
*P tx_data[4] I
*I *1441:A I *D sky130_fd_sc_hd__clkdlybuf4s25_1
*CAP
1 tx_data[4] 0.000451477
2 *1441:A 0.000451477
3 *1441:A *1275:A1 0.000160641
4 *1441:A *1435:A 4.66108e-05
5 *1441:A *1442:A 0.000309736
*RES
1 tx_data[4] *1441:A 9.81183 
*END

*D_NET *22 0.00132165
*CONN
*P tx_data[5] I
*I *1442:A I *D sky130_fd_sc_hd__clkdlybuf4s25_1
*CAP
1 tx_data[5] 0.00042018
2 *1442:A 0.00042018
3 *1442:A *1435:A 0.000171555
4 *1442:A *265:54 0
5 *1441:A *1442:A 0.000309736
*RES
1 tx_data[5] *1442:A 8.78663 
*END

*D_NET *23 0.000999981
*CONN
*P tx_data[6] I
*I *1443:A I *D sky130_fd_sc_hd__clkdlybuf4s25_1
*CAP
1 tx_data[6] 0.000398091
2 *1443:A 0.000398091
3 *1443:A *1342:CLK 1.16578e-05
4 tx_busy *1443:A 0.000192142
*RES
1 tx_data[6] *1443:A 9.11377 
*END

*D_NET *24 0.00207456
*CONN
*P tx_data[7] I
*I *1434:A I *D sky130_fd_sc_hd__clkdlybuf4s25_1
*CAP
1 tx_data[7] 0.00090208
2 *1434:A 0.00090208
3 *1434:A *1272:A 0.000138126
4 *1434:A *1272:B 7.45881e-05
5 *1434:A *1281:A1 0
6 *1434:A *1281:C1 0
7 *1434:A *396:10 5.21545e-05
8 *1438:A *1434:A 5.53249e-06
*RES
1 tx_data[7] *1434:A 19.4718 
*END

*D_NET *25 0.00186589
*CONN
*P tx_start I
*I *1435:A I *D sky130_fd_sc_hd__clkdlybuf4s25_1
*CAP
1 tx_start 0.000579694
2 *1435:A 0.000579694
3 *1435:A *1275:A1 9.57632e-05
4 *1435:A *1340:CLK 0.000187766
5 *1435:A *1340:D 5.39718e-05
6 *1435:A *102:10 0
7 *1435:A *244:39 0.000150837
8 *1435:A *265:54 0
9 tx *1435:A 0
10 *1433:A *1435:A 0
11 *1441:A *1435:A 4.66108e-05
12 *1442:A *1435:A 0.000171555
*RES
1 tx_start *1435:A 11.5899 
*END

*D_NET *26 0.000318488
*CONN
*I *1344:D I *D sky130_fd_sc_hd__dfxtp_2
*I *1112:X O *D sky130_fd_sc_hd__a31o_2
*CAP
1 *1344:D 1.97638e-05
2 *1112:X 1.97638e-05
3 *1344:D *1112:A3 0.000151967
4 *1344:D *1344:CLK 0.000113663
5 *1344:D *266:38 1.33293e-05
*RES
1 *1112:X *1344:D 4.56875 
*END

*D_NET *27 0.00112072
*CONN
*I *1345:D I *D sky130_fd_sc_hd__dfxtp_2
*I *1110:Y O *D sky130_fd_sc_hd__o31ai_2
*CAP
1 *1345:D 0.000404483
2 *1110:Y 0.000404483
3 *1345:D *1104:B 1.54049e-05
4 *1345:D *1106:B1 7.89767e-05
5 *1345:D *1110:A2 0
6 *1345:D *1110:B1 6.51276e-05
7 *1345:D *1367:A 0
8 *1345:D *239:23 1.52184e-05
9 *1348:A *1345:D 0.000121603
10 *3:30 *1345:D 1.54205e-05
*RES
1 *1110:Y *1345:D 13.9688 
*END

*D_NET *28 0.00036612
*CONN
*I *1346:D I *D sky130_fd_sc_hd__dfxtp_2
*I *1107:Y O *D sky130_fd_sc_hd__nor2_2
*CAP
1 *1346:D 0.00018306
2 *1107:Y 0.00018306
3 *1346:D *1346:CLK 0
4 *1346:D *1413:A 0
*RES
1 *1107:Y *1346:D 10.065 
*END

*D_NET *29 0.000544091
*CONN
*I *1347:D I *D sky130_fd_sc_hd__dfxtp_2
*I *1099:X O *D sky130_fd_sc_hd__a31o_2
*CAP
1 *1347:D 0.000188117
2 *1099:X 0.000188117
3 *1347:D *1099:A1 0
4 *1347:D *1203:C1 0.000162325
5 *1347:D *266:102 5.53249e-06
*RES
1 *1099:X *1347:D 10.6088 
*END

*D_NET *30 0.000982788
*CONN
*I *1381:A I *D sky130_fd_sc_hd__dlygate4sd3_1
*I *1127:Y O *D sky130_fd_sc_hd__a21oi_2
*CAP
1 *1381:A 0.000234796
2 *1127:Y 0.000234796
3 *1381:A *1126:A2 8.28018e-06
4 *1381:A *1127:A1 0.000122817
5 *1381:A *1127:A2 4.89395e-05
6 *1381:A *1127:B1 8.25446e-05
7 *1381:A *139:16 2.01737e-05
8 *1381:A *139:22 9.37556e-05
9 *1381:A *342:21 0.000136685
*RES
1 *1127:Y *1381:A 12.39 
*END

*D_NET *31 0.000575395
*CONN
*I *1283:D I *D sky130_fd_sc_hd__dfxtp_2
*I *1129:X O *D sky130_fd_sc_hd__and3_2
*CAP
1 *1283:D 0.000119739
2 *1129:X 0.000119739
3 *1283:D *1122:A 0.000159822
4 *1283:D *243:24 1.43717e-05
5 *1283:D *264:22 8.65905e-05
6 *1283:D *264:33 6.00423e-05
7 *1283:D *342:8 1.50897e-05
*RES
1 *1129:X *1283:D 10.0238 
*END

*D_NET *32 0.000579041
*CONN
*I *1284:D I *D sky130_fd_sc_hd__dfxtp_2
*I *1131:Y O *D sky130_fd_sc_hd__nor2_2
*CAP
1 *1284:D 0.000226732
2 *1131:Y 0.000226732
3 *1284:D *1131:B 9.23635e-05
4 *1284:D *264:39 3.32132e-05
*RES
1 *1131:Y *1284:D 10.8787 
*END

*D_NET *33 0.000250222
*CONN
*I *1285:D I *D sky130_fd_sc_hd__dfxtp_2
*I *1133:X O *D sky130_fd_sc_hd__and3b_2
*CAP
1 *1285:D 8.56266e-05
2 *1133:X 8.56266e-05
3 *1285:D *1133:B 7.89689e-05
*RES
1 *1133:X *1285:D 8.97375 
*END

*D_NET *34 0.00022759
*CONN
*I *1286:D I *D sky130_fd_sc_hd__dfxtp_2
*I *1135:Y O *D sky130_fd_sc_hd__a21oi_2
*CAP
1 *1286:D 9.53608e-05
2 *1135:Y 9.53608e-05
3 *1286:D *1135:A1 3.68682e-05
4 *1286:D *242:24 0
*RES
1 *1135:Y *1286:D 8.80875 
*END

*D_NET *35 0.000321834
*CONN
*I *1287:D I *D sky130_fd_sc_hd__dfxtp_2
*I *1137:Y O *D sky130_fd_sc_hd__nor2_2
*CAP
1 *1287:D 0.000107351
2 *1137:Y 0.000107351
3 *1287:D *1135:B1 0
4 *1287:D *1136:B1 8.79373e-05
5 *1287:D *1288:CLK 1.43717e-05
6 *1287:D *137:20 4.82319e-06
*RES
1 *1137:Y *1287:D 9.48375 
*END

*D_NET *36 0.000394792
*CONN
*I *1288:D I *D sky130_fd_sc_hd__dfxtp_2
*I *1139:X O *D sky130_fd_sc_hd__and3b_2
*CAP
1 *1288:D 0.000121414
2 *1139:X 0.000121414
3 *1288:D *1139:C 0.000144258
4 *1288:D *349:12 7.70553e-06
*RES
1 *1139:X *1288:D 9.42375 
*END

*D_NET *37 0.000309396
*CONN
*I *1289:D I *D sky130_fd_sc_hd__dfxtp_2
*I *1141:Y O *D sky130_fd_sc_hd__a21oi_2
*CAP
1 *1289:D 5.64874e-05
2 *1141:Y 5.64874e-05
3 *1289:D *1140:B1 5.13155e-05
4 *1289:D *1141:B1 9.30717e-05
5 *1289:D *348:14 5.20335e-05
*RES
1 *1141:Y *1289:D 8.80875 
*END

*D_NET *38 0.000226759
*CONN
*I *1290:D I *D sky130_fd_sc_hd__dfxtp_2
*I *1143:Y O *D sky130_fd_sc_hd__nor2_2
*CAP
1 *1290:D 7.51116e-05
2 *1143:Y 7.51116e-05
3 *1290:D *1143:B 6.21647e-05
4 *1290:D *242:98 1.43717e-05
*RES
1 *1143:Y *1290:D 8.71875 
*END

*D_NET *39 0.000521892
*CONN
*I *1291:D I *D sky130_fd_sc_hd__dfxtp_2
*I *1147:X O *D sky130_fd_sc_hd__and2_2
*CAP
1 *1291:D 0.000139896
2 *1147:X 0.000139896
3 *1291:D *1147:B 7.87077e-05
4 *1291:D *346:8 0.000163393
*RES
1 *1147:X *1291:D 10.3538 
*END

*D_NET *40 0.000625044
*CONN
*I *1292:D I *D sky130_fd_sc_hd__dfxtp_2
*I *1150:X O *D sky130_fd_sc_hd__o311a_2
*CAP
1 *1292:D 0.000212708
2 *1150:X 0.000212708
3 *1292:D *1071:A 3.09164e-05
4 *1292:D *1113:A 1.43717e-05
5 *1292:D *1123:A 4.66108e-05
6 *1292:D *1150:A3 7.06865e-05
7 *1292:D *115:10 0
8 *1292:D *243:10 2.16389e-05
9 *1292:D *340:19 1.54049e-05
*RES
1 *1150:X *1292:D 10.9537 
*END

*D_NET *41 0.00058707
*CONN
*I *1293:D I *D sky130_fd_sc_hd__dfxtp_2
*I *1151:X O *D sky130_fd_sc_hd__o2111a_2
*CAP
1 *1293:D 0.000182349
2 *1151:X 0.000182349
3 *1293:D *1113:B 2.75538e-05
4 *1293:D *1293:CLK 6.60057e-05
5 *1293:D *1295:D 5.05437e-05
6 *1293:D *116:29 0
7 *1293:D *344:14 7.82691e-05
*RES
1 *1151:X *1293:D 10.35 
*END

*D_NET *42 0.00106895
*CONN
*I *1404:A I *D sky130_fd_sc_hd__dlygate4sd3_1
*I *1152:X O *D sky130_fd_sc_hd__o311a_2
*CAP
1 *1404:A 0.000254189
2 *1152:X 0.000254189
3 *1404:A *1152:A1 5.30673e-05
4 *1404:A *1152:A2 5.5709e-05
5 *1404:A *1155:C 0.000162404
6 *1404:A *124:18 1.33293e-05
7 *1404:A *264:12 0.000250609
8 *1404:A *264:22 2.54557e-05
*RES
1 *1152:X *1404:A 12.795 
*END

*D_NET *43 0.00241918
*CONN
*I *1295:D I *D sky130_fd_sc_hd__dfxtp_2
*I *1153:X O *D sky130_fd_sc_hd__and4_2
*CAP
1 *1295:D 0.000471965
2 *1153:X 0.000471965
3 *1295:D *1146:A3 0.000532062
4 *1295:D *1150:A1 6.74079e-05
5 *1295:D *1150:A2 0
6 *1295:D *1151:A1 0.000650004
7 *1295:D *1151:A2 4.82919e-05
8 *1295:D *1151:C1 4.29107e-05
9 *1295:D *1295:CLK 8.40269e-05
10 *1295:D *141:12 0
11 *1293:D *1295:D 5.05437e-05
*RES
1 *1153:X *1295:D 19.425 
*END

*D_NET *44 0.00118099
*CONN
*I *1296:D I *D sky130_fd_sc_hd__dfxtp_2
*I *1157:X O *D sky130_fd_sc_hd__o211a_2
*CAP
1 *1296:D 0.000409935
2 *1157:X 0.000409935
3 *1296:D *1157:B1 0
4 *1296:D *1391:A 0.000120186
5 *1296:D *158:27 0.000240933
*RES
1 *1157:X *1296:D 15.3938 
*END

*D_NET *45 8.4422e-05
*CONN
*I *1379:A I *D sky130_fd_sc_hd__dlygate4sd3_1
*I *1159:X O *D sky130_fd_sc_hd__o211a_2
*CAP
1 *1379:A 1.72301e-05
2 *1159:X 1.72301e-05
3 *1379:A *1158:A 4.99619e-05
*RES
1 *1159:X *1379:A 3.65 
*END

*D_NET *46 0.000514648
*CONN
*I *1388:A I *D sky130_fd_sc_hd__dlygate4sd3_1
*I *1161:X O *D sky130_fd_sc_hd__o211a_2
*CAP
1 *1388:A 0.00015243
2 *1161:X 0.00015243
3 *1388:A *1160:A 2.16833e-05
4 *1388:A *1161:B1 3.00381e-05
5 *1388:A *158:53 0.000111455
6 *1388:A *158:63 4.66108e-05
*RES
1 *1161:X *1388:A 6.065 
*END

*D_NET *47 0.00290319
*CONN
*I *1390:A I *D sky130_fd_sc_hd__dlygate4sd3_1
*I *1163:X O *D sky130_fd_sc_hd__o211a_2
*CAP
1 *1390:A 0.000751211
2 *1163:X 0.000751211
3 *1390:A *1157:A2 0.000118527
4 *1390:A *1163:A1 0
5 *1390:A *1165:A1 0
6 *1390:A *1299:D 0.000384433
7 *1390:A *1300:D 6.55406e-05
8 *1390:A *1447:A 4.11194e-05
9 *1390:A *1448:A 0.000160641
10 *1390:A *159:91 0.000525599
11 rx_data[4] *1390:A 0.00010491
*RES
1 *1163:X *1390:A 23.445 
*END

*D_NET *48 0.00100869
*CONN
*I *1300:D I *D sky130_fd_sc_hd__dfxtp_2
*I *1165:X O *D sky130_fd_sc_hd__o211a_2
*CAP
1 *1300:D 0.000246423
2 *1165:X 0.000246423
3 *1300:D *1157:A2 0.000162352
4 *1300:D *1165:A1 0.000111324
5 *1300:D *1201:A1 0.000176629
6 *1390:A *1300:D 6.55406e-05
*RES
1 *1165:X *1300:D 13.89 
*END

*D_NET *49 0.000715547
*CONN
*I *1377:A I *D sky130_fd_sc_hd__dlygate4sd3_1
*I *1167:X O *D sky130_fd_sc_hd__o211a_2
*CAP
1 *1377:A 0.0002841
2 *1167:X 0.0002841
3 *1377:A *1301:D 0
4 *1377:A *1367:A 0
5 *1377:A *244:85 0
6 *1377:A *272:12 9.428e-05
7 *1377:A *277:6 5.30673e-05
*RES
1 *1167:X *1377:A 12.36 
*END

*D_NET *50 0.000532483
*CONN
*I *1383:A I *D sky130_fd_sc_hd__dlygate4sd3_1
*I *1169:X O *D sky130_fd_sc_hd__o211a_2
*CAP
1 *1383:A 0.000257049
2 *1169:X 0.000257049
3 *1383:A *1270:A 0
4 *1383:A *1302:D 0
5 *1383:A *1445:A 0
6 rx_data[1] *1383:A 1.83847e-05
*RES
1 *1169:X *1383:A 11.325 
*END

*D_NET *51 0.0014767
*CONN
*I *1386:A I *D sky130_fd_sc_hd__dlygate4sd3_1
*I *1171:X O *D sky130_fd_sc_hd__o211a_2
*CAP
1 *1386:A 0.000161563
2 *1171:X 0.000161563
3 *1386:A *1451:A 0.000393029
4 *1386:A *159:89 0.000739436
5 *1386:A *287:6 2.11084e-05
*RES
1 *1171:X *1386:A 9.86 
*END

*D_NET *52 0.000541804
*CONN
*I *1304:D I *D sky130_fd_sc_hd__dfxtp_2
*I *1172:X O *D sky130_fd_sc_hd__or2_2
*CAP
1 *1304:D 0.000187496
2 *1172:X 0.000187496
3 *1304:D *1304:CLK 0.000157308
4 *1304:D *1326:CLK 9.50342e-06
*RES
1 *1172:X *1304:D 10.2937 
*END

*D_NET *53 0.000600029
*CONN
*I *1305:D I *D sky130_fd_sc_hd__dfxtp_2
*I *1173:X O *D sky130_fd_sc_hd__or2_2
*CAP
1 *1305:D 0.000116872
2 *1173:X 0.000116872
3 *1305:D *1107:A 9.30787e-05
4 *1305:D *1108:A 7.36892e-05
5 *1305:D *1173:A 4.66108e-05
6 *1305:D *1305:CLK 5.83121e-06
7 *1305:D *241:8 0.000116158
8 *1305:D *241:73 9.50342e-06
9 *1305:D *273:105 2.14129e-05
*RES
1 *1173:X *1305:D 10.0538 
*END

*D_NET *54 0.00100068
*CONN
*I *1110:A3 I *D sky130_fd_sc_hd__o31ai_2
*I *1306:D I *D sky130_fd_sc_hd__dfxtp_2
*I *1109:X O *D sky130_fd_sc_hd__or2_2
*CAP
1 *1110:A3 0
2 *1306:D 0.000119414
3 *1109:X 6.48925e-05
4 *54:8 0.000184307
5 *1306:D *1110:A2 0.000233925
6 *1306:D *1345:CLK 0.000233925
7 *54:8 *1110:A2 3.09164e-05
8 *54:8 *1345:CLK 0.000128066
9 *54:8 *239:23 0
10 *3:30 *54:8 5.23787e-06
*RES
1 *1109:X *54:8 5.235 
2 *54:8 *1306:D 7.08375 
3 *54:8 *1110:A3 3.6 
*END

*D_NET *55 0.000570433
*CONN
*I *1307:D I *D sky130_fd_sc_hd__dfxtp_2
*I *1178:X O *D sky130_fd_sc_hd__o211a_2
*CAP
1 *1307:D 0.000166814
2 *1178:X 0.000166814
3 *1307:D *185:12 4.8061e-05
4 *1307:D *185:38 0
5 *1307:D *239:153 9.29751e-06
6 *1307:D *239:161 2.75145e-05
7 *1307:D *239:170 1.19928e-05
8 *1307:D *246:46 0.00013994
*RES
1 *1178:X *1307:D 10.605 
*END

*D_NET *56 0.000309152
*CONN
*I *1308:D I *D sky130_fd_sc_hd__dfxtp_2
*I *1183:X O *D sky130_fd_sc_hd__and2_2
*CAP
1 *1308:D 0.000108746
2 *1183:X 0.000108746
3 *1308:D *1369:A 0
4 *1308:D *94:8 6.60261e-06
5 *1308:D *269:25 8.50581e-05
*RES
1 *1183:X *1308:D 8.91375 
*END

*D_NET *57 0.000187895
*CONN
*I *1309:D I *D sky130_fd_sc_hd__dfxtp_2
*I *1186:X O *D sky130_fd_sc_hd__and3_2
*CAP
1 *1309:D 6.6143e-05
2 *1186:X 6.6143e-05
3 *1309:D *1186:C 5.20968e-05
4 *1309:D *355:8 3.51254e-06
*RES
1 *1186:X *1309:D 8.46375 
*END

*D_NET *58 0.000447091
*CONN
*I *1310:D I *D sky130_fd_sc_hd__dfxtp_2
*I *1191:X O *D sky130_fd_sc_hd__o211a_2
*CAP
1 *1310:D 0.000117056
2 *1191:X 0.000117056
3 *1310:D *1157:C1 0
4 *1310:D *119:50 0.000164686
5 *1310:D *246:12 4.82919e-05
*RES
1 *1191:X *1310:D 9.67875 
*END

*D_NET *59 0.000565517
*CONN
*I *1311:D I *D sky130_fd_sc_hd__dfxtp_2
*I *1193:X O *D sky130_fd_sc_hd__o311a_2
*CAP
1 *1311:D 0.000208153
2 *1193:X 0.000208153
3 *1311:D *1193:A1 5.21046e-05
4 *1311:D *1449:A 9.71067e-05
*RES
1 *1193:X *1311:D 10.5337 
*END

*D_NET *60 0.000381109
*CONN
*I *1312:D I *D sky130_fd_sc_hd__dfxtp_2
*I *1195:X O *D sky130_fd_sc_hd__o311a_2
*CAP
1 *1312:D 5.46417e-05
2 *1195:X 5.46417e-05
3 *1312:D *1168:B 9.16237e-05
4 *1312:D *1449:A 0.000162318
5 *1312:D *159:59 1.43717e-05
6 *1312:D *185:66 3.51254e-06
*RES
1 *1195:X *1312:D 9.22875 
*END

*D_NET *61 0.00123136
*CONN
*I *1313:D I *D sky130_fd_sc_hd__dfxtp_2
*I *1197:X O *D sky130_fd_sc_hd__o311a_2
*CAP
1 *1313:D 0.000359907
2 *1197:X 0.000359907
3 *1313:D *1163:A1 0
4 *1313:D *1170:A 0
5 *1313:D *1196:A1 8.08153e-06
6 *1313:D *1196:A2 0.000113797
7 *1313:D *1197:A1 5.30673e-05
8 *1313:D *1197:B1 9.14049e-05
9 *1313:D *1299:CLK 0.000186099
10 *1313:D *269:57 5.90938e-05
*RES
1 *1197:X *1313:D 13.77 
*END

*D_NET *62 0.000436884
*CONN
*I *1314:D I *D sky130_fd_sc_hd__dfxtp_2
*I *1201:X O *D sky130_fd_sc_hd__o211a_2
*CAP
1 *1314:D 0.000116784
2 *1201:X 0.000116784
3 *1314:D *1201:A1 4.99619e-05
4 *1314:D *1300:CLK 4.82863e-05
5 *1314:D *291:12 0.000105068
*RES
1 *1201:X *1314:D 9.93375 
*END

*D_NET *63 0.00023261
*CONN
*I *1315:D I *D sky130_fd_sc_hd__dfxtp_2
*I *1203:X O *D sky130_fd_sc_hd__o311a_2
*CAP
1 *1315:D 7.65025e-05
2 *1203:X 7.65025e-05
3 *1315:D *1315:CLK 4.99619e-05
4 *1315:D *159:10 2.96426e-05
*RES
1 *1203:X *1315:D 4.61 
*END

*D_NET *64 0.0007145
*CONN
*I *1316:D I *D sky130_fd_sc_hd__dfxtp_2
*I *1205:X O *D sky130_fd_sc_hd__o311a_2
*CAP
1 *1316:D 0.000247602
2 *1205:X 0.000247602
3 *1316:D *1169:A2 0.000201503
4 *1316:D *1204:A2 0
5 *1316:D *1204:B1_N 8.53113e-06
6 *1316:D *1205:B1 0
7 *1316:D *1270:A 9.26175e-06
8 *1316:D *268:46 0
*RES
1 *1205:X *1316:D 11.7338 
*END

*D_NET *65 0.00045012
*CONN
*I *1317:D I *D sky130_fd_sc_hd__dfxtp_2
*I *1207:X O *D sky130_fd_sc_hd__o311a_2
*CAP
1 *1317:D 0.000132311
2 *1207:X 0.000132311
3 *1317:D *1171:B1 2.65814e-06
4 *1317:D *1206:B1_N 4.94326e-05
5 *1317:D *158:53 0.000133408
6 *1317:D *247:19 0
*RES
1 *1207:X *1317:D 9.84375 
*END

*D_NET *66 0.000543691
*CONN
*I *1318:D I *D sky130_fd_sc_hd__dfxtp_2
*I *1215:X O *D sky130_fd_sc_hd__and2b_2
*CAP
1 *1318:D 0.000221986
2 *1215:X 0.000221986
3 *1318:D *1221:A 9.97188e-05
*RES
1 *1215:X *1318:D 6.65375 
*END

*D_NET *67 0.000975229
*CONN
*I *1402:A I *D sky130_fd_sc_hd__dlygate4sd3_1
*I *1217:Y O *D sky130_fd_sc_hd__a21boi_2
*CAP
1 *1402:A 0.000219236
2 *1217:Y 0.000219236
3 *1402:A *1208:A_N 0.000325419
4 *1402:A *1212:C 8.35157e-05
5 *1402:A *1217:A1 0.000127823
*RES
1 *1217:Y *1402:A 12.21 
*END

*D_NET *68 0.000955522
*CONN
*I *1320:D I *D sky130_fd_sc_hd__dfxtp_2
*I *1220:X O *D sky130_fd_sc_hd__and3_2
*CAP
1 *1320:D 0.000198433
2 *1220:X 0.000198433
3 *1320:D *1215:A_N 6.47516e-05
4 *1320:D *1220:C 0.000270647
5 *1320:D *1318:CLK 0.000140912
6 *1320:D *1320:CLK 8.23457e-05
*RES
1 *1220:X *1320:D 12.0787 
*END

*D_NET *69 0.000583081
*CONN
*I *1321:D I *D sky130_fd_sc_hd__dfxtp_2
*I *1223:X O *D sky130_fd_sc_hd__and3b_2
*CAP
1 *1321:D 0.00014598
2 *1223:X 0.00014598
3 *1321:D *1215:B 0
4 *1321:D *1221:C 1.1561e-05
5 *1321:D *1221:D 7.4027e-05
6 *1321:D *1223:B 0.000153499
7 *1321:D *240:77 5.20335e-05
8 *1321:D *371:37 0
*RES
1 *1223:X *1321:D 10.8488 
*END

*D_NET *70 0.000350779
*CONN
*I *1322:D I *D sky130_fd_sc_hd__dfxtp_2
*I *1226:X O *D sky130_fd_sc_hd__and3_2
*CAP
1 *1322:D 0.000129657
2 *1226:X 0.000129657
3 *1322:D *1226:B 7.70938e-05
4 *1322:D *1322:CLK 1.43717e-05
*RES
1 *1226:X *1322:D 9.42375 
*END

*D_NET *71 0.000860724
*CONN
*I *1323:D I *D sky130_fd_sc_hd__dfxtp_2
*I *1229:X O *D sky130_fd_sc_hd__and3b_2
*CAP
1 *1323:D 0.000168622
2 *1229:X 0.000168622
3 *1323:D *1228:A1 6.77417e-05
4 *1323:D *1229:A_N 6.23288e-05
5 *1323:D *1229:B 0.000160635
6 *1323:D *263:33 6.23288e-05
7 *1323:D *263:61 0.0001249
8 *1323:D *378:52 4.55458e-05
*RES
1 *1229:X *1323:D 11.985 
*END

*D_NET *72 0.000708024
*CONN
*I *1324:D I *D sky130_fd_sc_hd__dfxtp_2
*I *1232:X O *D sky130_fd_sc_hd__and3b_2
*CAP
1 *1324:D 0.000197436
2 *1232:X 0.000197436
3 *1324:D *1217:B1_N 0.000154698
4 *1324:D *1230:A 0
5 *1324:D *1231:D 6.55406e-05
6 *1324:D *1232:C 3.00381e-05
7 *1324:D *263:29 6.28765e-05
8 *1324:D *380:10 0
*RES
1 *1232:X *1324:D 11.9738 
*END

*D_NET *73 0.000262091
*CONN
*I *1325:D I *D sky130_fd_sc_hd__dfxtp_2
*I *1235:X O *D sky130_fd_sc_hd__and3_2
*CAP
1 *1325:D 6.66053e-05
2 *1235:X 6.66053e-05
3 *1325:D *1235:B 7.33283e-05
4 *1325:D *1325:CLK 4.82319e-06
5 *1325:D *263:12 5.07293e-05
*RES
1 *1235:X *1325:D 8.97375 
*END

*D_NET *74 0.000398984
*CONN
*I *1326:D I *D sky130_fd_sc_hd__dfxtp_2
*I *1238:X O *D sky130_fd_sc_hd__and3b_2
*CAP
1 *1326:D 9.50888e-05
2 *1238:X 9.50888e-05
3 *1326:D *1238:C 6.55406e-05
4 *1326:D *1326:CLK 0.000143266
5 *1326:D *197:8 0
*RES
1 *1238:X *1326:D 9.51375 
*END

*D_NET *75 0.000741714
*CONN
*I *1327:D I *D sky130_fd_sc_hd__dfxtp_2
*I *1241:X O *D sky130_fd_sc_hd__o21ba_2
*CAP
1 *1327:D 0.000325232
2 *1241:X 0.000325232
3 *1327:D *1211:B 9.23804e-06
4 *1327:D *1239:A 3.05648e-05
5 *1327:D *1241:B1_N 0
6 *1327:D *381:65 5.14473e-05
7 *1327:D *382:10 0
*RES
1 *1241:X *1327:D 12.1237 
*END

*D_NET *76 0.000813641
*CONN
*I *1328:D I *D sky130_fd_sc_hd__dfxtp_2
*I *1243:X O *D sky130_fd_sc_hd__o21ba_2
*CAP
1 *1328:D 0.000240913
2 *1243:X 0.000240913
3 *1328:D *1241:B1_N 0
4 *1328:D *1243:B1_N 0
5 *1328:D *196:18 9.33933e-05
6 *1328:D *241:20 0.000238421
7 *1328:D *310:12 0
*RES
1 *1243:X *1328:D 12.3188 
*END

*D_NET *77 0.000261324
*CONN
*I *1329:D I *D sky130_fd_sc_hd__dfxtp_2
*I *1246:X O *D sky130_fd_sc_hd__and3_2
*CAP
1 *1329:D 8.56272e-05
2 *1246:X 8.56272e-05
3 *1329:D *1246:B 7.56981e-05
4 *1329:D *241:18 1.43717e-05
*RES
1 *1246:X *1329:D 8.97375 
*END

*D_NET *78 0.000348188
*CONN
*I *1414:A I *D sky130_fd_sc_hd__dlygate4sd3_1
*I *1248:X O *D sky130_fd_sc_hd__o211a_2
*CAP
1 *1414:A 0.0001165
2 *1248:X 0.0001165
3 *1414:A *1248:A1 0.000115188
*RES
1 *1248:X *1414:A 5.375 
*END

*D_NET *79 0.000638579
*CONN
*I *1331:D I *D sky130_fd_sc_hd__dfxtp_2
*I *1252:Y O *D sky130_fd_sc_hd__a211oi_2
*CAP
1 *1331:D 0.00027326
2 *1252:Y 0.00027326
3 *1331:D *1251:B1_N 7.00889e-06
4 *1331:D *1252:A1 5.83121e-06
5 *1331:D *1252:B1 1.33293e-05
6 *1331:D *239:33 5.1518e-05
7 *1331:D *241:75 1.43717e-05
*RES
1 *1252:Y *1331:D 11.3138 
*END

*D_NET *80 0.000320128
*CONN
*I *1399:A I *D sky130_fd_sc_hd__dlygate4sd3_1
*I *1255:Y O *D sky130_fd_sc_hd__nor2_2
*CAP
1 *1399:A 9.84516e-05
2 *1255:Y 9.84516e-05
3 *1399:A *244:77 0.000123225
*RES
1 *1255:Y *1399:A 5.03 
*END

*D_NET *81 0.00042794
*CONN
*I *1333:D I *D sky130_fd_sc_hd__dfxtp_2
*I *1259:X O *D sky130_fd_sc_hd__and3_2
*CAP
1 *1333:D 0.000119125
2 *1259:X 0.000119125
3 *1333:D *244:16 0.000102732
4 *1333:D *244:24 8.69583e-05
*RES
1 *1259:X *1333:D 5.78 
*END

*D_NET *82 0.000722508
*CONN
*I *1334:D I *D sky130_fd_sc_hd__dfxtp_2
*I *1262:X O *D sky130_fd_sc_hd__o21ba_2
*CAP
1 *1334:D 0.000114993
2 *1262:X 0.000114993
3 *1334:D *1260:A1 0.000194275
4 *1334:D *1262:B1_N 5.39961e-05
5 *1334:D *244:24 7.56999e-05
6 *1334:D *250:10 5.53249e-06
7 *1334:D *265:41 0.000163019
*RES
1 *1262:X *1334:D 10.83 
*END

*D_NET *83 0.000423451
*CONN
*I *1335:D I *D sky130_fd_sc_hd__dfxtp_2
*I *1265:Y O *D sky130_fd_sc_hd__a21oi_2
*CAP
1 *1335:D 0.000117116
2 *1265:Y 0.000117116
3 *1335:D *1265:A1 0.00016885
4 *1335:D *1265:B1 1.61831e-05
5 *1335:D *1335:CLK 4.18603e-06
*RES
1 *1265:Y *1335:D 9.67875 
*END

*D_NET *84 0.000447897
*CONN
*I *1336:D I *D sky130_fd_sc_hd__dfxtp_2
*I *1267:X O *D sky130_fd_sc_hd__o311a_2
*CAP
1 *1336:D 0.000174692
2 *1267:X 0.000174692
3 *1336:D *1079:A0 4.82919e-05
4 *1336:D *1082:A0 0
5 *1336:D *239:89 5.02217e-05
*RES
1 *1267:X *1336:D 9.79875 
*END

*D_NET *85 0.000803003
*CONN
*I *1337:D I *D sky130_fd_sc_hd__dfxtp_2
*I *1269:X O *D sky130_fd_sc_hd__o311a_2
*CAP
1 *1337:D 9.28716e-05
2 *1269:X 9.28716e-05
3 *1337:D *1268:B 1.7902e-05
4 *1337:D *219:67 0.000209878
5 *1337:D *268:79 0.00031712
6 *1438:A *1337:D 7.23602e-05
*RES
1 *1269:X *1337:D 11.0138 
*END

*D_NET *86 0.000724125
*CONN
*I *1338:D I *D sky130_fd_sc_hd__dfxtp_2
*I *1271:X O *D sky130_fd_sc_hd__o311a_2
*CAP
1 *1338:D 0.000142616
2 *1271:X 0.000142616
3 *1338:D *1271:A1 0.000143266
4 *1338:D *1445:A 5.72004e-05
5 *1338:D *245:92 0.000238427
*RES
1 *1271:X *1338:D 11.0437 
*END

*D_NET *87 0.000654617
*CONN
*I *1339:D I *D sky130_fd_sc_hd__dfxtp_2
*I *1273:X O *D sky130_fd_sc_hd__o311a_2
*CAP
1 *1339:D 0.000148639
2 *1273:X 0.000148639
3 *1339:D *1271:A3 2.97004e-06
4 *1339:D *1273:B1 4.53039e-05
5 *1339:D *1281:A1 0.000136599
6 *1339:D *1412:A 0
7 *1339:D *102:100 4.77757e-05
8 *1339:D *245:57 0.000124689
*RES
1 *1273:X *1339:D 10.4587 
*END

*D_NET *88 0.000323821
*CONN
*I *1340:D I *D sky130_fd_sc_hd__dfxtp_2
*I *1275:X O *D sky130_fd_sc_hd__o311a_2
*CAP
1 *1340:D 7.74836e-05
2 *1275:X 7.74836e-05
3 *1340:D *1275:A1 9.37731e-05
4 *1340:D *1341:CLK 2.11084e-05
5 *1435:A *1340:D 5.39718e-05
*RES
1 *1275:X *1340:D 8.91375 
*END

*D_NET *89 0.00062752
*CONN
*I *1341:D I *D sky130_fd_sc_hd__dfxtp_2
*I *1277:X O *D sky130_fd_sc_hd__o311a_2
*CAP
1 *1341:D 0.000193533
2 *1277:X 0.000193533
3 *1341:D *1274:A 9.14049e-05
4 *1341:D *1274:B 7.53592e-05
5 *1341:D *1275:C1 7.36892e-05
6 *1341:D *1277:B1 0
7 *1341:D *102:25 0
8 *1341:D *268:83 0
*RES
1 *1277:X *1341:D 11.0437 
*END

*D_NET *90 0.000283735
*CONN
*I *1342:D I *D sky130_fd_sc_hd__dfxtp_2
*I *1279:X O *D sky130_fd_sc_hd__o311a_2
*CAP
1 *1342:D 8.88331e-05
2 *1279:X 8.88331e-05
3 *1342:D *1279:A1 5.20968e-05
4 tx_busy *1342:D 5.39718e-05
*RES
1 *1279:X *1342:D 9.00375 
*END

*D_NET *91 0.000448635
*CONN
*I *1343:D I *D sky130_fd_sc_hd__dfxtp_2
*I *1281:X O *D sky130_fd_sc_hd__o311a_2
*CAP
1 *1343:D 0.000125099
2 *1281:X 0.000125099
3 *1343:D *1273:A1 5.91322e-05
4 *1343:D *102:92 8.65961e-05
5 *1343:D *102:100 3.83368e-05
6 *1343:D *245:61 1.43717e-05
*RES
1 *1281:X *1343:D 9.51375 
*END

*D_NET *92 0.00165815
*CONN
*I *1080:A I *D sky130_fd_sc_hd__or2_2
*I *1078:A I *D sky130_fd_sc_hd__nand2_2
*I *1263:B1 I *D sky130_fd_sc_hd__a31o_2
*I *1067:Y O *D sky130_fd_sc_hd__inv_2
*CAP
1 *1080:A 0
2 *1078:A 6.23016e-05
3 *1263:B1 0.000311645
4 *1067:Y 0
5 *92:21 0.000150097
6 *92:4 0.00039944
7 *1078:A *196:51 0.000118504
8 *1078:A *387:12 8.53113e-06
9 *1078:A *387:18 0.000206824
10 *1263:B1 *1263:A2 2.24336e-05
11 *1263:B1 *1265:A1 0
12 *1263:B1 *1424:A 7.3151e-05
13 *1263:B1 *225:14 1.22762e-05
14 *1263:B1 *273:10 0
15 *1263:B1 *388:6 4.82863e-05
16 *92:21 *1080:B 4.66108e-05
17 *92:21 *1424:A 0.000198046
*RES
1 *1067:Y *92:4 1.6 
2 *92:4 *1263:B1 10.445 
3 *92:4 *92:21 2.19 
4 *92:21 *1078:A 8 
5 *92:21 *1080:A 1.6 
*END

*D_NET *93 0.00206965
*CONN
*I *1097:A I *D sky130_fd_sc_hd__or2_2
*I *1185:A I *D sky130_fd_sc_hd__nand2_2
*I *1198:C1 I *D sky130_fd_sc_hd__a211o_2
*I *1068:Y O *D sky130_fd_sc_hd__inv_2
*CAP
1 *1097:A 0.000124859
2 *1185:A 0
3 *1198:C1 0.000327154
4 *1068:Y 0.000206655
5 *93:12 0.00040895
6 *1097:A *1068:A 8.49205e-05
7 *1097:A *1097:B 0.000122331
8 *1097:A *1190:D 0.000124895
9 *1097:A *1191:B1 7.00889e-06
10 *1097:A *158:16 5.27201e-05
11 *1198:C1 *1188:A1 0.000133585
12 *1198:C1 *1188:B1 8.50473e-05
13 *1198:C1 *1198:A1 0
14 *1198:C1 *1198:B1 5.3161e-05
15 *1198:C1 *355:8 1.4399e-05
16 *93:12 *1068:A 7.06865e-05
17 *93:12 *1186:A 1.34361e-05
18 *93:12 *1309:CLK 0.000116151
19 *93:12 *158:16 4.66108e-05
20 *93:12 *355:16 7.70758e-05
*RES
1 *1068:Y *93:12 7.685 
2 *93:12 *1198:C1 7.735 
3 *93:12 *1185:A 1.6 
4 *1068:Y *1097:A 6.41 
*END

*D_NET *94 0.00234683
*CONN
*I *1179:B I *D sky130_fd_sc_hd__nand2_2
*I *1180:B I *D sky130_fd_sc_hd__or2_2
*I *1177:A I *D sky130_fd_sc_hd__or2_2
*I *1069:Y O *D sky130_fd_sc_hd__inv_2
*CAP
1 *1179:B 1.24307e-05
2 *1180:B 0
3 *1177:A 0.00014552
4 *1069:Y 0.000351345
5 *94:10 0.000221515
6 *94:8 0.000439771
7 *1177:A *1207:C1 1.89685e-05
8 *1177:A *1369:A 3.25831e-05
9 *1177:A *1370:A 0.000118504
10 *1177:A *185:12 0.000118294
11 *1177:A *246:50 0.000198945
12 *1177:A *271:76 0
13 *1179:B *1369:A 7.70828e-05
14 *1179:B *172:17 6.92392e-05
15 *94:8 *1178:A1 3.45679e-05
16 *94:8 *269:25 1.04258e-05
17 *94:8 *269:38 2.8585e-06
18 *94:10 *1181:A 0.000140912
19 *94:10 *1207:C1 6.71226e-05
20 *94:10 *1369:A 0.00027064
21 *94:10 *172:17 9.50342e-06
22 *1308:D *94:8 6.60261e-06
*RES
1 *1069:Y *94:8 7.5 
2 *94:8 *94:10 3.165 
3 *94:10 *1177:A 8.085 
4 *94:10 *1180:B 3.6 
5 *94:8 *1179:B 4.47 
*END

*D_NET *95 0.000452448
*CONN
*I *1248:A1 I *D sky130_fd_sc_hd__o211a_2
*I *1070:Y O *D sky130_fd_sc_hd__inv_2
*CAP
1 *1248:A1 0.00016863
2 *1070:Y 0.00016863
3 *1414:A *1248:A1 0.000115188
*RES
1 *1070:Y *1248:A1 6.0575 
*END

*D_NET *96 0.00112132
*CONN
*I *1152:C1 I *D sky130_fd_sc_hd__o311a_2
*I *1071:Y O *D sky130_fd_sc_hd__inv_2
*CAP
1 *1152:C1 0.000393824
2 *1071:Y 0.000393824
3 *1152:C1 *1155:C 0.000139245
4 *1152:C1 *243:18 4.80285e-05
5 *1152:C1 *243:20 0.000113343
6 *1152:C1 *243:65 2.75229e-05
7 *1152:C1 *264:12 5.53249e-06
*RES
1 *1071:Y *1152:C1 12.735 
*END

*D_NET *97 0.0029836
*CONN
*I *1148:A I *D sky130_fd_sc_hd__and2_2
*I *1101:A I *D sky130_fd_sc_hd__or3_2
*I *1146:A1 I *D sky130_fd_sc_hd__a32o_2
*I *1072:Y O *D sky130_fd_sc_hd__inv_2
*CAP
1 *1148:A 0.000217004
2 *1101:A 0
3 *1146:A1 0.00025423
4 *1072:Y 5.45378e-05
5 *97:10 0.00030315
6 *97:6 0.000320462
7 *1146:A1 *1101:C 9.12494e-06
8 *1146:A1 *1115:D 0.000122817
9 *1146:A1 *1146:A2 0.000158556
10 *1146:A1 *1146:B1 1.54665e-05
11 *1146:A1 *116:18 0.000113891
12 *1146:A1 *346:25 3.5998e-05
13 *1148:A *1101:C 0.000126264
14 *1148:A *1113:B 8.49205e-05
15 *1148:A *1114:C 1.08758e-05
16 *1148:A *1144:B 3.00381e-05
17 *1148:A *1145:A 3.09233e-05
18 *1148:A *1147:A 0.000175848
19 *1148:A *1148:B 4.21973e-05
20 *1148:A *1149:A 0.00011852
21 *1148:A *1150:C1 0.000158965
22 *1148:A *1151:B1 2.05641e-05
23 *1148:A *243:71 0
24 *97:6 *1114:B 6.71882e-05
25 *97:6 *1114:C 0.00015639
26 *97:10 *1101:C 0.000182397
27 *97:10 *116:18 0.000173272
*RES
1 *1072:Y *97:6 3.085 
2 *97:6 *97:10 4.145 
3 *97:10 *1146:A1 7.845 
4 *97:10 *1101:A 3.6 
5 *97:6 *1148:A 12.41 
*END

*D_NET *98 0.00108363
*CONN
*I *1127:A1 I *D sky130_fd_sc_hd__a21oi_2
*I *1073:Y O *D sky130_fd_sc_hd__inv_2
*CAP
1 *1127:A1 0.000196266
2 *1073:Y 0.000196266
3 *1127:A1 *1126:A2 0.000279985
4 *1127:A1 *1127:A2 0.000201838
5 *1127:A1 *1127:B1 8.64599e-05
6 *1381:A *1127:A1 0.000122817
*RES
1 *1073:Y *1127:A1 13.155 
*END

*D_NET *99 0.000627785
*CONN
*I *1110:A1 I *D sky130_fd_sc_hd__o31ai_2
*I *1074:Y O *D sky130_fd_sc_hd__inv_2
*CAP
1 *1110:A1 0.000116209
2 *1074:Y 0.000116209
3 *1110:A1 *248:33 0.000320834
4 *1110:A1 *273:105 7.4534e-05
*RES
1 *1074:Y *1110:A1 10.875 
*END

*D_NET *100 0.00195981
*CONN
*I *1371:A I *D sky130_fd_sc_hd__clkdlybuf4s25_1
*I *1075:Y O *D sky130_fd_sc_hd__inv_2
*CAP
1 *1371:A 0.00081025
2 *1075:Y 0.00081025
3 *1371:A *1301:D 0
4 *1371:A *1332:D 0.000143266
5 *1371:A *1345:CLK 0
6 *1371:A *248:29 0.000116629
7 *1371:A *273:105 4.43871e-06
8 *1371:A *384:27 7.49722e-05
9 *3:30 *1371:A 0
*RES
1 *1075:Y *1371:A 21.315 
*END

*D_NET *101 0.000890101
*CONN
*I *1176:A1 I *D sky130_fd_sc_hd__o211a_2
*I *1174:A2 I *D sky130_fd_sc_hd__a21oi_2
*I *1076:Y O *D sky130_fd_sc_hd__inv_2
*CAP
1 *1176:A1 0.000237979
2 *1174:A2 5.04395e-05
3 *1076:Y 0
4 *101:4 0.000288418
5 *1174:A2 *1108:B 0
6 *1174:A2 *1370:A 9.50342e-06
7 *1174:A2 *368:49 0.000116158
8 *1174:A2 *370:16 2.50049e-05
9 *1176:A1 *1176:A2 4.65291e-05
10 *1176:A1 *1176:B1 3.19584e-05
11 *1176:A1 *1176:C1 6.83659e-05
12 *1176:A1 *170:8 7.21296e-06
13 *1176:A1 *368:67 8.53113e-06
*RES
1 *1076:Y *101:4 1.6 
2 *101:4 *1174:A2 6.98 
3 *101:4 *1176:A1 8.76125 
*END

*D_NET *102 0.0112004
*CONN
*I *1281:A2 I *D sky130_fd_sc_hd__o311a_2
*I *1269:A2 I *D sky130_fd_sc_hd__o311a_2
*I *1271:A2 I *D sky130_fd_sc_hd__o311a_2
*I *1273:A2 I *D sky130_fd_sc_hd__o311a_2
*I *1279:A2 I *D sky130_fd_sc_hd__o311a_2
*I *1267:A2 I *D sky130_fd_sc_hd__o311a_2
*I *1277:A2 I *D sky130_fd_sc_hd__o311a_2
*I *1249:A I *D sky130_fd_sc_hd__nor2_2
*I *1275:A2 I *D sky130_fd_sc_hd__o311a_2
*I *1077:Y O *D sky130_fd_sc_hd__inv_2
*CAP
1 *1281:A2 5.98435e-05
2 *1269:A2 0
3 *1271:A2 0.000137057
4 *1273:A2 0
5 *1279:A2 0.000785391
6 *1267:A2 0.000835602
7 *1277:A2 0
8 *1249:A 6.68764e-05
9 *1275:A2 0
10 *1077:Y 0.000157566
11 *102:107 0.000249103
12 *102:100 0.000756992
13 *102:92 0.00117046
14 *102:44 0.000892441
15 *102:29 0.000273048
16 *102:25 0.000768538
17 *102:10 0.000457048
18 *1249:A *1277:A1 0.00013994
19 *1249:A *1277:A3 2.24423e-05
20 *1249:A *265:93 3.56638e-05
21 *1249:A *272:57 1.22505e-05
22 *1267:A2 *1079:A0 8.09157e-05
23 *1267:A2 *1267:A3 0.00023301
24 *1267:A2 *1276:A 8.35124e-05
25 *1267:A2 *219:67 0.00011852
26 *1267:A2 *265:108 5.28702e-05
27 *1267:A2 *268:79 0.000223401
28 *1267:A2 *390:12 0.000172342
29 *1271:A2 *1269:A1 0
30 *1271:A2 *1269:A3 8.23457e-05
31 *1271:A2 *1269:C1 4.82863e-05
32 *1271:A2 *1271:A3 0.000119406
33 *1271:A2 *268:50 8.05167e-05
34 *1271:A2 *268:58 5.36372e-05
35 *1279:A2 *1277:A1 0
36 *1279:A2 *1279:A3 8.65905e-05
37 *1279:A2 *265:54 0.000169534
38 *1279:A2 *265:65 7.40446e-05
39 *1279:A2 *265:69 0
40 *1281:A2 *1281:A1 3.95724e-05
41 *102:10 *1275:A1 9.50342e-06
42 *102:10 *244:39 0
43 *102:10 *250:10 0.000316806
44 *102:25 *1274:A 0
45 *102:25 *1275:B1 0.000119285
46 *102:25 *1275:C1 0
47 *102:25 *1341:CLK 5.49536e-05
48 *102:25 *265:54 0.000160521
49 *102:29 *1275:A1 0.000239813
50 *102:29 *1277:A1 4.82863e-05
51 *102:44 *1277:A1 4.82919e-05
52 *102:92 *1273:A1 0.000161529
53 *102:92 *1279:A1 0.00016506
54 *102:92 *1279:A3 7.00889e-06
55 *102:92 *1342:CLK 0
56 *102:92 *395:10 0
57 *102:100 *1269:A1 1.08985e-05
58 *102:100 *1273:A1 0.000315178
59 *102:100 *1281:A1 4.88478e-05
60 *102:100 *1281:A3 0.000112389
61 *102:107 *1269:A1 0.000220772
62 *102:107 *1271:A3 0.000379501
63 *102:107 *268:58 6.07575e-06
64 *1339:D *102:100 4.77757e-05
65 *1341:D *102:25 0
66 *1343:D *102:92 8.65961e-05
67 *1343:D *102:100 3.83368e-05
68 *1433:A *102:10 0
69 *1435:A *102:10 0
70 *1440:A *1281:A2 1.34594e-05
71 *1440:A *102:92 5.07419e-05
*RES
1 *1077:Y *102:10 9.275 
2 *102:10 *1275:A2 1.6 
3 *102:10 *102:25 7.625 
4 *102:25 *102:29 5.21 
5 *102:29 *1249:A 7.745 
6 *102:29 *102:44 1.155 
7 *102:44 *1277:A2 1.6 
8 *102:44 *1267:A2 20.3 
9 *102:25 *1279:A2 9.465 
10 *1279:A2 *102:92 14.975 
11 *102:92 *102:100 15.805 
12 *102:100 *1273:A2 1.6 
13 *102:100 *102:107 3.9 
14 *102:107 *1271:A2 5.17 
15 *102:107 *1269:A2 1.6 
16 *102:92 *1281:A2 2.755 
*END

*D_NET *103 0.00191106
*CONN
*I *1083:B1 I *D sky130_fd_sc_hd__o21a_2
*I *1264:A I *D sky130_fd_sc_hd__or2_2
*I *1078:Y O *D sky130_fd_sc_hd__nand2_2
*CAP
1 *1083:B1 0.000238304
2 *1264:A 3.99824e-05
3 *1078:Y 0.000136882
4 *103:10 0.000415168
5 *1083:B1 *1083:A1 0
6 *1083:B1 *1259:B 8.60799e-05
7 *1083:B1 *1259:C 7.89767e-05
8 *1083:B1 *105:21 0
9 *1083:B1 *196:51 2.42236e-05
10 *1083:B1 *265:25 0.000183731
11 *1083:B1 *387:10 0
12 *103:10 *1213:A 0.000227748
13 *103:10 *196:8 5.05521e-05
14 *103:10 *196:51 7.74981e-05
15 *103:10 *262:10 0.000246683
16 *103:10 *262:33 1.92979e-05
17 *103:10 *265:25 8.59365e-05
*RES
1 *1078:Y *103:10 8.415 
2 *103:10 *1264:A 4.05 
3 *103:10 *1083:B1 8.835 
*END

*D_NET *104 0.000518075
*CONN
*I *1082:A0 I *D sky130_fd_sc_hd__mux2_1
*I *1079:X O *D sky130_fd_sc_hd__mux4_2
*CAP
1 *1082:A0 0.000171373
2 *1079:X 0.000171373
3 *1082:A0 *219:27 0.000123225
4 *1082:A0 *219:67 5.21046e-05
5 *1336:D *1082:A0 0
*RES
1 *1079:X *1082:A0 10.155 
*END

*D_NET *105 0.00218406
*CONN
*I *1251:A1 I *D sky130_fd_sc_hd__o21ba_2
*I *1083:A1 I *D sky130_fd_sc_hd__o21a_2
*I *1257:B1 I *D sky130_fd_sc_hd__a31o_2
*I *1250:A1 I *D sky130_fd_sc_hd__o21bai_2
*I *1080:X O *D sky130_fd_sc_hd__or2_2
*CAP
1 *1251:A1 0
2 *1083:A1 0.000132573
3 *1257:B1 7.25992e-05
4 *1250:A1 0
5 *1080:X 0.000217029
6 *105:21 0.000408402
7 *105:10 0.000318515
8 *105:6 0.000332314
9 *1083:A1 *1256:A2 9.54469e-05
10 *1083:A1 *1256:A3 5.4155e-06
11 *1083:A1 *1257:A1 0
12 *1083:A1 *1259:B 0.000123955
13 *1257:B1 *1257:A1 8.64421e-05
14 *1257:B1 *1258:A 2.52012e-05
15 *1257:B1 *384:64 0.000160314
16 *105:6 *265:8 7.87074e-05
17 *105:10 *1213:A 0
18 *105:10 *195:39 1.49649e-05
19 *105:10 *195:50 7.34247e-05
20 *105:10 *265:25 0
21 *105:21 *1079:S0 0
22 *105:21 *1251:B1_N 0
23 *105:21 *1256:A2 2.92496e-05
24 *105:21 *195:50 9.50342e-06
25 *105:21 *265:25 0
26 *1083:B1 *1083:A1 0
27 *1083:B1 *105:21 0
*RES
1 *1080:X *105:6 4.81 
2 *105:6 *105:10 4.145 
3 *105:10 *1250:A1 3.6 
4 *105:10 *105:21 3.105 
5 *105:21 *1257:B1 5.43 
6 *105:21 *1083:A1 6.48 
7 *105:6 *1251:A1 1.6 
*END

*D_NET *106 0.00123393
*CONN
*I *1082:A1 I *D sky130_fd_sc_hd__mux2_1
*I *1081:X O *D sky130_fd_sc_hd__mux4_2
*CAP
1 *1082:A1 0.000288847
2 *1081:X 0.000288847
3 *1082:A1 *1079:A1 0.00010914
4 *1082:A1 *1081:S0 0
5 *1082:A1 *219:67 0.000184845
6 *1082:A1 *268:79 0.000269178
7 *1082:A1 *386:42 9.30717e-05
*RES
1 *1081:X *1082:A1 14.19 
*END

*D_NET *107 0.00142781
*CONN
*I *1083:A2 I *D sky130_fd_sc_hd__o21a_2
*I *1082:X O *D sky130_fd_sc_hd__mux2_1
*CAP
1 *1083:A2 0.000598671
2 *1082:X 0.000598671
3 *1083:A2 *1256:A2 8.73389e-06
4 *1083:A2 *1256:A3 1.14169e-05
5 *1083:A2 *1259:B 0.000161467
6 *1083:A2 *219:27 4.8854e-05
*RES
1 *1082:X *1083:A2 16.65 
*END

*D_NET *108 0.00104063
*CONN
*I *1092:A I *D sky130_fd_sc_hd__and4_2
*I *1094:A I *D sky130_fd_sc_hd__and4_2
*I *1085:Y O *D sky130_fd_sc_hd__nor2_2
*CAP
1 *1092:A 0.000100649
2 *1094:A 2.88569e-05
3 *1085:Y 0.000220817
4 *108:8 0.000350323
5 *1092:A *1094:B 0.000154982
6 *1092:A *1155:C 9.24881e-05
7 *1092:A *110:6 2.49909e-05
8 *1092:A *239:124 7.28465e-06
9 *1094:A *111:8 1.79098e-05
10 *108:8 *239:124 4.23341e-05
11 *108:8 *242:12 0
*RES
1 *1085:Y *108:8 7.275 
2 *108:8 *1094:A 4.05 
3 *108:8 *1092:A 6.195 
*END

*D_NET *109 0.00137177
*CONN
*I *1093:A I *D sky130_fd_sc_hd__or4b_2
*I *1102:A I *D sky130_fd_sc_hd__or4_2
*I *1086:X O *D sky130_fd_sc_hd__or2_2
*CAP
1 *1093:A 8.84247e-05
2 *1102:A 0
3 *1086:X 0.000184411
4 *109:10 0.000272836
5 *1093:A *1092:C 0.000169821
6 *1093:A *1093:B 7.1624e-05
7 *1093:A *1093:C 5.48107e-05
8 *1093:A *113:8 1.82111e-05
9 *1093:A *116:10 2.69217e-05
10 *109:10 *1092:C 5.0096e-05
11 *109:10 *112:8 0.000262844
12 *109:10 *113:8 0.000171767
*RES
1 *1086:X *109:10 8.415 
2 *109:10 *1102:A 3.6 
3 *109:10 *1093:A 6.45 
*END

*D_NET *110 0.000815275
*CONN
*I *1092:B I *D sky130_fd_sc_hd__and4_2
*I *1094:B I *D sky130_fd_sc_hd__and4_2
*I *1087:Y O *D sky130_fd_sc_hd__nor3_2
*CAP
1 *1092:B 5.58319e-05
2 *1094:B 7.18562e-05
3 *1087:Y 0.000124489
4 *110:6 0.000252177
5 *1094:B *1155:C 2.39947e-05
6 *1094:B *239:124 0.000106953
7 *1092:A *1094:B 0.000154982
8 *1092:A *110:6 2.49909e-05
*RES
1 *1087:Y *110:6 3.43 
2 *110:6 *1094:B 8 
3 *110:6 *1092:B 2.395 
*END

*D_NET *111 0.00147078
*CONN
*I *1102:B I *D sky130_fd_sc_hd__or4_2
*I *1093:B I *D sky130_fd_sc_hd__or4b_2
*I *1088:X O *D sky130_fd_sc_hd__or3_2
*CAP
1 *1102:B 0
2 *1093:B 2.56297e-05
3 *1088:X 0.000358274
4 *111:8 0.000383904
5 *1093:B *1093:C 7.1624e-05
6 *111:8 *1094:C 0.000103166
7 *111:8 *1094:D 4.71087e-05
8 *111:8 *1155:C 0.000230037
9 *111:8 *124:14 0.0001615
10 *1093:A *1093:B 7.1624e-05
11 *1094:A *111:8 1.79098e-05
*RES
1 *1088:X *111:8 8.965 
2 *111:8 *1093:B 6.47 
3 *111:8 *1102:B 1.6 
*END

*D_NET *112 0.00213761
*CONN
*I *1092:C I *D sky130_fd_sc_hd__and4_2
*I *1094:C I *D sky130_fd_sc_hd__and4_2
*I *1089:Y O *D sky130_fd_sc_hd__nor4_2
*CAP
1 *1092:C 0.000288849
2 *1094:C 0.000205371
3 *1089:Y 0.00015322
4 *112:8 0.00064744
5 *1092:C *1093:D_N 0.000158556
6 *1092:C *116:10 3.64998e-06
7 *1094:C *1094:D 8.53011e-05
8 *112:8 *113:8 9.29751e-06
9 *1093:A *1092:C 0.000169821
10 *109:10 *1092:C 5.0096e-05
11 *109:10 *112:8 0.000262844
12 *111:8 *1094:C 0.000103166
*RES
1 *1089:Y *112:8 7.02 
2 *112:8 *1094:C 7.275 
3 *112:8 *1092:C 9.135 
*END

*D_NET *113 0.00125447
*CONN
*I *1093:C I *D sky130_fd_sc_hd__or4b_2
*I *1102:C I *D sky130_fd_sc_hd__or4_2
*I *1090:X O *D sky130_fd_sc_hd__or4_2
*CAP
1 *1093:C 0.000124014
2 *1102:C 0
3 *1090:X 0.000267989
4 *113:8 0.000392004
5 *1093:C *116:10 2.69217e-05
6 *113:8 *1089:C 0.000117832
7 *113:8 *347:10 0
8 *113:8 *351:21 0
9 *1093:A *1093:C 5.48107e-05
10 *1093:A *113:8 1.82111e-05
11 *1093:B *1093:C 7.1624e-05
12 *109:10 *113:8 0.000171767
13 *112:8 *113:8 9.29751e-06
*RES
1 *1090:X *113:8 9.315 
2 *113:8 *1102:C 3.6 
3 *113:8 *1093:C 6.195 
*END

*D_NET *114 0.00214878
*CONN
*I *1093:D_N I *D sky130_fd_sc_hd__or4b_2
*I *1092:D I *D sky130_fd_sc_hd__and4_2
*I *1094:D I *D sky130_fd_sc_hd__and4_2
*I *1091:X O *D sky130_fd_sc_hd__and4bb_2
*CAP
1 *1093:D_N 7.06552e-05
2 *1092:D 0
3 *1094:D 0.000119687
4 *1091:X 0.00041011
5 *114:23 7.06552e-05
6 *114:10 0.000529797
7 *1094:D *124:14 0.000133453
8 *1094:D *239:124 0.000107727
9 *114:10 *1091:A_N 5.09431e-05
10 *114:10 *124:14 0.000113222
11 *114:10 *239:124 5.86575e-05
12 *114:10 *243:18 2.97339e-05
13 *114:10 *243:20 4.41506e-05
14 *114:10 *243:65 0.000119025
15 *1092:C *1093:D_N 0.000158556
16 *1094:C *1094:D 8.53011e-05
17 *111:8 *1094:D 4.71087e-05
*RES
1 *1091:X *114:10 9.915 
2 *114:10 *1094:D 6.795 
3 *114:10 *114:23 2 
4 *114:23 *1092:D 1.6 
5 *114:23 *1093:D_N 3.085 
*END

*D_NET *115 0.0049812
*CONN
*I *1153:D I *D sky130_fd_sc_hd__and4_2
*I *1176:B1 I *D sky130_fd_sc_hd__o211a_2
*I *1111:A2 I *D sky130_fd_sc_hd__a221o_2
*I *1092:X O *D sky130_fd_sc_hd__and4_2
*CAP
1 *1153:D 8.03263e-05
2 *1176:B1 0.000302322
3 *1111:A2 0.000306853
4 *1092:X 0.000339836
5 *115:35 0.000559757
6 *115:10 0.000823798
7 *1111:A2 *1111:B1 4.00541e-06
8 *1111:A2 *1111:B2 0
9 *1111:A2 *1112:B1 0.000239807
10 *1111:A2 *1152:A2 1.7635e-05
11 *1111:A2 *1344:CLK 0
12 *1111:A2 *300:42 0.000314917
13 *1111:A2 *369:27 0.0004515
14 *1153:D *1150:A1 2.46007e-05
15 *1153:D *1153:B 4.82919e-05
16 *1153:D *1153:C 1.52184e-05
17 *1153:D *1187:A 2.96334e-05
18 *1153:D *368:67 0.000120655
19 *1153:D *370:18 3.09233e-05
20 *1153:D *370:22 6.21553e-05
21 *1176:B1 *1153:A 4.66108e-05
22 *1176:B1 *1187:A 6.38722e-05
23 *115:10 *1071:A 0
24 *115:10 *1150:A3 0.000155069
25 *115:10 *124:14 0.000191003
26 *115:10 *239:122 0
27 *115:10 *243:10 7.26629e-05
28 *115:10 *243:14 8.97564e-05
29 *115:10 *370:22 3.44034e-05
30 *115:35 *1150:A1 0.000105424
31 *115:35 *369:27 0.000139748
32 *115:35 *370:22 0.000278458
33 *1176:A1 *1176:B1 3.19584e-05
34 *1292:D *115:10 0
*RES
1 *1092:X *115:10 11.9825 
2 *115:10 *1111:A2 8.32268 
3 *115:10 *115:35 4.0053 
4 *115:35 *1176:B1 7.99875 
5 *115:35 *1153:D 5.865 
*END

*D_NET *116 0.00869549
*CONN
*I *1146:B1 I *D sky130_fd_sc_hd__a32o_2
*I *1198:A2 I *D sky130_fd_sc_hd__a211o_2
*I *1175:A2 I *D sky130_fd_sc_hd__a21o_2
*I *1095:C I *D sky130_fd_sc_hd__and3_2
*I *1098:A I *D sky130_fd_sc_hd__nor2_2
*I *1188:A2 I *D sky130_fd_sc_hd__a211o_2
*I *1151:A2 I *D sky130_fd_sc_hd__o2111a_2
*I *1093:X O *D sky130_fd_sc_hd__or4b_2
*CAP
1 *1146:B1 0.000277766
2 *1198:A2 2.05268e-05
3 *1175:A2 8.87042e-05
4 *1095:C 9.53966e-05
5 *1098:A 0
6 *1188:A2 0
7 *1151:A2 2.19121e-05
8 *1093:X 0.000645853
9 *116:63 0.000309725
10 *116:50 0.000168783
11 *116:48 0.000556289
12 *116:29 0.00100698
13 *116:18 0.000888447
14 *116:10 0.00127578
15 *1095:C *1095:A 5.20981e-05
16 *1095:C *121:8 0.0001947
17 *1146:B1 *1146:A2 1.50085e-05
18 *1146:B1 *1146:A3 0.000159566
19 *1151:A2 *1151:C1 5.83121e-06
20 *1175:A2 *1175:A1 4.99619e-05
21 *1175:A2 *1184:A2 4.82863e-05
22 *1175:A2 *239:153 7.63125e-05
23 *1175:A2 *271:45 0
24 *1198:A2 *1098:B 3.66286e-05
25 *1198:A2 *368:108 5.83121e-06
26 *116:10 *1115:B 0.000438301
27 *116:10 *1146:A3 3.93467e-05
28 *116:18 *1100:A 1.07797e-05
29 *116:18 *1101:C 0.000331593
30 *116:18 *1102:D 0.000175094
31 *116:18 *1113:A 0.0003175
32 *116:18 *1151:B1 4.29069e-05
33 *116:18 *1151:C1 9.47454e-05
34 *116:18 *122:10 1.03592e-05
35 *116:18 *344:14 5.21627e-05
36 *116:18 *344:16 5.35498e-05
37 *116:18 *344:18 9.31538e-05
38 *116:29 *1113:B 0
39 *116:29 *1151:B1 4.43871e-06
40 *116:29 *1184:B2 4.11194e-05
41 *116:29 *1293:CLK 0
42 *116:29 *120:8 1.52837e-05
43 *116:29 *178:10 0
44 *116:29 *344:14 8.98657e-05
45 *116:29 *355:16 0
46 *116:48 *271:45 9.82856e-06
47 *116:48 *368:108 1.7635e-05
48 *116:50 *1098:B 0.000124007
49 *116:50 *271:49 1.34503e-05
50 *116:63 *1098:B 6.10082e-05
51 *116:63 *1198:A1 0
52 *116:63 *121:8 0.000163204
53 *116:63 *271:49 8.73544e-05
54 *1092:C *116:10 3.64998e-06
55 *1093:A *116:10 2.69217e-05
56 *1093:C *116:10 2.69217e-05
57 *1146:A1 *1146:B1 1.54665e-05
58 *1146:A1 *116:18 0.000113891
59 *1293:D *116:29 0
60 *1295:D *1151:A2 4.82919e-05
61 *97:10 *116:18 0.000173272
*RES
1 *1093:X *116:10 10.435 
2 *116:10 *116:18 13.37 
3 *116:18 *1151:A2 4.05 
4 *116:18 *116:29 8.265 
5 *116:29 *1188:A2 3.6 
6 *116:29 *116:48 3.91143 
7 *116:48 *116:50 1.14 
8 *116:50 *1098:A 1.6 
9 *116:50 *116:63 3.69 
10 *116:63 *1095:C 3.79 
11 *116:63 *1175:A2 7.685 
12 *116:48 *1198:A2 2.05 
13 *116:10 *1146:B1 5.935 
*END

*D_NET *117 0.00505821
*CONN
*I *1154:C I *D sky130_fd_sc_hd__and3_2
*I *1155:C I *D sky130_fd_sc_hd__nand3_2
*I *1094:X O *D sky130_fd_sc_hd__and4_2
*CAP
1 *1154:C 6.20691e-05
2 *1155:C 0.00118991
3 *1094:X 0.00112784
4 *1154:C *1154:B 6.88124e-05
5 *1154:C *1190:C 4.184e-05
6 *1154:C *266:117 6.06374e-05
7 *1155:C *1099:A2 4.60584e-05
8 *1155:C *1112:A1 0.00011852
9 *1155:C *1112:B1 9.31022e-05
10 *1155:C *1152:A2 3.9022e-05
11 *1155:C *1155:A 4.82919e-05
12 *1155:C *1187:A 9.5799e-06
13 *1155:C *1370:A 0.000114913
14 *1155:C *1430:A 0.000225182
15 *1155:C *169:14 0.000122548
16 *1155:C *169:18 0
17 *1155:C *239:122 0.000320354
18 *1155:C *239:124 7.46166e-05
19 *1155:C *264:12 1.52776e-05
20 *1155:C *266:117 0.000265471
21 *1155:C *271:59 3.96653e-05
22 *1155:C *300:42 3.99983e-05
23 *1155:C *340:10 0.000120186
24 *1155:C *368:36 7.8494e-06
25 *1155:C *368:49 0.000158297
26 *1155:C *370:91 0
27 *1092:A *1155:C 9.24881e-05
28 *1094:B *1155:C 2.39947e-05
29 *1152:C1 *1155:C 0.000139245
30 *1404:A *1155:C 0.000162404
31 *111:8 *1155:C 0.000230037
*RES
1 *1094:X *1155:C 34.245 
2 *1155:C *1154:C 5.525 
*END

*D_NET *118 0.00104853
*CONN
*I *1099:B1 I *D sky130_fd_sc_hd__a31o_2
*I *1095:X O *D sky130_fd_sc_hd__and3_2
*CAP
1 *1099:B1 0.000316983
2 *1095:X 0.000316983
3 *1099:B1 *1099:A3 0.000136877
4 *1099:B1 *1370:A 7.36562e-05
5 *1099:B1 *121:8 0.000204026
*RES
1 *1095:X *1099:B1 12.045 
*END

*D_NET *119 0.00658797
*CONN
*I *1097:B I *D sky130_fd_sc_hd__or2_2
*I *1185:B I *D sky130_fd_sc_hd__nand2_2
*I *1196:A1 I *D sky130_fd_sc_hd__o21bai_2
*I *1197:A2 I *D sky130_fd_sc_hd__o311a_2
*I *1206:A1 I *D sky130_fd_sc_hd__o21bai_2
*I *1207:A2 I *D sky130_fd_sc_hd__o311a_2
*I *1096:Y O *D sky130_fd_sc_hd__nand2_2
*CAP
1 *1097:B 6.46151e-05
2 *1185:B 0.000107694
3 *1196:A1 0.000145211
4 *1197:A2 0
5 *1206:A1 3.33099e-05
6 *1207:A2 8.89153e-05
7 *1096:Y 0.000132635
8 *119:50 0.000736154
9 *119:14 0.00027982
10 *119:12 0.000157594
11 *119:10 0.000405308
12 *119:6 0.000956578
13 *1185:B *1068:A 5.92191e-05
14 *1185:B *1309:CLK 0
15 *1185:B *120:8 0
16 *1185:B *179:8 6.28765e-05
17 *1185:B *179:25 2.59981e-05
18 *1185:B *355:16 4.58406e-05
19 *1196:A1 *1170:A 0
20 *1196:A1 *1196:A2 0
21 *1196:A1 *1197:B1 7.55313e-05
22 *1196:A1 *1200:C 0
23 *1196:A1 *158:43 2.75229e-05
24 *1196:A1 *269:57 1.57491e-05
25 *1206:A1 *267:42 9.53428e-06
26 *1207:A2 *1207:B1 0.000277223
27 *1207:A2 *185:62 0.000428764
28 *1207:A2 *267:42 7.67345e-05
29 *119:6 *269:38 0.000501915
30 *119:6 *353:40 0.000253946
31 *119:10 *1201:A2 0.000140836
32 *119:10 *179:89 5.00786e-05
33 *119:10 *269:38 0.000116165
34 *119:10 *269:57 0.000515085
35 *119:10 *354:75 1.07797e-05
36 *119:14 *1197:A1 0.000112631
37 *119:14 *267:42 1.47256e-05
38 *119:14 *269:57 8.40213e-05
39 *119:50 *1157:A2 0
40 *119:50 *1157:C1 0
41 *119:50 *1309:CLK 0
42 *119:50 *179:25 0.000279856
43 *119:50 *179:89 0
44 *1097:A *1097:B 0.000122331
45 *1310:D *119:50 0.000164686
46 *1313:D *1196:A1 8.08153e-06
*RES
1 *1096:Y *119:6 6.535 
2 *119:6 *119:10 9.5 
3 *119:10 *119:12 2 
4 *119:12 *119:14 2.865 
5 *119:14 *1207:A2 5.845 
6 *119:14 *1206:A1 2.215 
7 *119:12 *1197:A2 1.6 
8 *119:10 *1196:A1 6.45 
9 *119:6 *119:50 12.785 
10 *119:50 *1185:B 6.255 
11 *119:50 *1097:B 4.74 
*END

*D_NET *120 0.00173402
*CONN
*I *1098:B I *D sky130_fd_sc_hd__nor2_2
*I *1184:B2 I *D sky130_fd_sc_hd__a22o_2
*I *1097:X O *D sky130_fd_sc_hd__or2_2
*CAP
1 *1098:B 0.00033009
2 *1184:B2 5.03533e-05
3 *1097:X 0.000170529
4 *120:8 0.000550972
5 *1098:B *1188:A1 1.68507e-05
6 *1098:B *1188:B1 7.14699e-05
7 *1098:B *1198:B1 9.56256e-05
8 *1098:B *368:108 1.47347e-05
9 *1184:B2 *1188:C1 9.14049e-05
10 *1184:B2 *178:10 1.34361e-05
11 *120:8 *1188:C1 4.03257e-05
12 *120:8 *1190:B 1.0183e-05
13 *120:8 *179:8 0
14 *120:8 *185:8 0
15 *120:8 *271:45 0
16 *120:8 *368:108 0
17 *1185:B *120:8 0
18 *1198:A2 *1098:B 3.66286e-05
19 *116:29 *1184:B2 4.11194e-05
20 *116:29 *120:8 1.52837e-05
21 *116:50 *1098:B 0.000124007
22 *116:63 *1098:B 6.10082e-05
*RES
1 *1097:X *120:8 6 
2 *120:8 *1184:B2 4.98 
3 *120:8 *1098:B 9.015 
*END

*D_NET *121 0.00316849
*CONN
*I *1099:A3 I *D sky130_fd_sc_hd__a31o_2
*I *1108:B I *D sky130_fd_sc_hd__or3b_2
*I *1098:Y O *D sky130_fd_sc_hd__nor2_2
*CAP
1 *1099:A3 9.79596e-05
2 *1108:B 0.000285687
3 *1098:Y 0.000230538
4 *121:8 0.000614185
5 *1099:A3 *1099:A1 0.000173533
6 *1099:A3 *1099:A2 8.23457e-05
7 *1099:A3 *1370:A 1.82563e-05
8 *1099:A3 *246:56 4.66108e-05
9 *1099:A3 *266:102 4.54965e-05
10 *1108:B *1099:A1 0.000141599
11 *1108:B *1105:C 0
12 *1108:B *1110:B1 9.6227e-05
13 *1108:B *1152:A2 1.22676e-05
14 *1108:B *1203:C1 0
15 *1108:B *1370:A 2.84137e-05
16 *1108:B *266:38 4.43871e-06
17 *1108:B *367:27 0
18 *1108:B *368:36 1.73877e-05
19 *1108:B *368:49 0
20 *1108:B *370:16 0.000196634
21 *121:8 *1095:A 2.8185e-05
22 *121:8 *271:49 0.000198195
23 *121:8 *271:59 2.75145e-05
24 *121:8 *370:16 1.56428e-05
25 *121:8 *370:87 0.000108569
26 *1095:C *121:8 0.0001947
27 *1099:B1 *1099:A3 0.000136877
28 *1099:B1 *121:8 0.000204026
29 *1174:A2 *1108:B 0
30 *116:63 *121:8 0.000163204
*RES
1 *1098:Y *121:8 10.95 
2 *121:8 *1108:B 10.59 
3 *121:8 *1099:A3 6.885 
*END

*D_NET *122 0.00180398
*CONN
*I *1151:B1 I *D sky130_fd_sc_hd__o2111a_2
*I *1101:C I *D sky130_fd_sc_hd__or3_2
*I *1100:X O *D sky130_fd_sc_hd__or2_2
*CAP
1 *1151:B1 0.000109091
2 *1101:C 0.00018611
3 *1100:X 1.74019e-05
4 *122:10 0.000312603
5 *1101:C *1101:B 3.75034e-05
6 *1101:C *1145:A 3.98782e-05
7 *1101:C *1149:A 0.000120186
8 *1101:C *346:25 5.31158e-06
9 *1151:B1 *1147:A 2.25075e-05
10 *1151:B1 *1151:C1 9.14049e-05
11 *1151:B1 *1151:D1 4.11112e-05
12 *122:10 *1113:A 4.66108e-05
13 *122:10 *1150:C1 4.66108e-05
14 *1146:A1 *1101:C 9.12494e-06
15 *1148:A *1101:C 0.000126264
16 *1148:A *1151:B1 2.05641e-05
17 *97:10 *1101:C 0.000182397
18 *116:18 *1101:C 0.000331593
19 *116:18 *1151:B1 4.29069e-05
20 *116:18 *122:10 1.03592e-05
21 *116:29 *1151:B1 4.43871e-06
*RES
1 *1100:X *122:10 4.2825 
2 *122:10 *1101:C 10.1475 
3 *122:10 *1151:B1 6.3225 
*END

*D_NET *123 0.00141979
*CONN
*I *1102:D I *D sky130_fd_sc_hd__or4_2
*I *1101:X O *D sky130_fd_sc_hd__or3_2
*CAP
1 *1102:D 0.000514199
2 *1101:X 0.000514199
3 *1102:D *1115:B 0.000151756
4 *1102:D *1143:B 2.69443e-06
5 *1102:D *133:10 5.35141e-05
6 *1102:D *344:18 8.33066e-06
7 *116:18 *1102:D 0.000175094
*RES
1 *1101:X *1102:D 16.5 
*END

*D_NET *124 0.00875905
*CONN
*I *1150:A3 I *D sky130_fd_sc_hd__o311a_2
*I *1152:A3 I *D sky130_fd_sc_hd__o311a_2
*I *1103:A I *D sky130_fd_sc_hd__inv_2
*I *1110:A2 I *D sky130_fd_sc_hd__o31ai_2
*I *1106:A2 I *D sky130_fd_sc_hd__a21oi_2
*I *1102:X O *D sky130_fd_sc_hd__or4_2
*CAP
1 *1150:A3 0.000394811
2 *1152:A3 0
3 *1103:A 0
4 *1110:A2 0.000414907
5 *1106:A2 0.000128438
6 *1102:X 0.000322938
7 *124:34 0.000692922
8 *124:30 0.000839669
9 *124:18 0.00089274
10 *124:14 0.000920397
11 *1106:A2 *1074:A 0
12 *1106:A2 *1106:B1 0
13 *1106:A2 *1111:B1 0.000116158
14 *1106:A2 *300:8 6.9114e-05
15 *1110:A2 *1074:A 0
16 *1110:A2 *1106:B1 0
17 *1110:A2 *1110:B1 0
18 *1110:A2 *1111:B1 0.000141606
19 *1110:A2 *1345:CLK 7.26629e-05
20 *1150:A3 *1123:A 9.67791e-05
21 *1150:A3 *1150:A2 4.82919e-05
22 *1150:A3 *1364:A 9.27495e-05
23 *1150:A3 *239:122 5.92767e-05
24 *1150:A3 *239:124 9.87616e-05
25 *1150:A3 *243:10 1.04258e-05
26 *1150:A3 *370:22 1.71013e-05
27 *124:14 *239:124 0.000103222
28 *124:18 *264:22 4.99619e-05
29 *124:18 *340:19 9.2741e-05
30 *124:30 *1108:A 1.60203e-05
31 *124:30 *1111:C1 9.5799e-06
32 *124:30 *1112:A3 0.000352156
33 *124:30 *1122:A 1.94805e-05
34 *124:30 *1129:C 0
35 *124:30 *1344:CLK 0.00034599
36 *124:30 *1418:A 0
37 *124:30 *243:40 0.000231564
38 *124:30 *264:22 0.000416015
39 *124:30 *365:10 2.11084e-05
40 *124:30 *367:6 3.45588e-05
41 *124:30 *367:27 4.7101e-05
42 *124:34 *1108:A 0.000319172
43 *124:34 *365:10 0.000162575
44 *1094:D *124:14 0.000133453
45 *1292:D *1150:A3 7.06865e-05
46 *1306:D *1110:A2 0.000233925
47 *1345:D *1110:A2 0
48 *1404:A *124:18 1.33293e-05
49 *3:30 *1110:A2 4.95418e-06
50 *54:8 *1110:A2 3.09164e-05
51 *111:8 *124:14 0.0001615
52 *114:10 *124:14 0.000113222
53 *115:10 *1150:A3 0.000155069
54 *115:10 *124:14 0.000191003
*RES
1 *1102:X *124:14 10.845 
2 *124:14 *124:18 5.21 
3 *124:18 *124:30 18.55 
4 *124:30 *124:34 6.935 
5 *124:34 *1106:A2 6.1125 
6 *124:34 *1110:A2 11.835 
7 *124:30 *1103:A 1.6 
8 *124:18 *1152:A3 1.6 
9 *124:14 *1150:A3 15.805 
*END

*D_NET *125 0.00186365
*CONN
*I *1112:A3 I *D sky130_fd_sc_hd__a31o_2
*I *1103:Y O *D sky130_fd_sc_hd__inv_2
*CAP
1 *1112:A3 0.000316037
2 *1103:Y 0.000316037
3 *1112:A3 *1108:A 0.000501915
4 *1112:A3 *1151:A1 3.26889e-05
5 *1112:A3 *1344:CLK 0.000183971
6 *1112:A3 *266:38 8.88108e-06
7 *1344:D *1112:A3 0.000151967
8 *124:30 *1112:A3 0.000352156
*RES
1 *1103:Y *1112:A3 11.375 
*END

*D_NET *126 0.00234198
*CONN
*I *1111:B1 I *D sky130_fd_sc_hd__a221o_2
*I *1104:Y O *D sky130_fd_sc_hd__nand2b_2
*CAP
1 *1111:B1 0.00078141
2 *1104:Y 0.00078141
3 *1111:B1 *1106:B1 0.00016569
4 *1111:B1 *1111:B2 9.13682e-05
5 *1111:B1 *1418:A 0.000119631
6 *1111:B1 *300:42 0.0001407
7 *1106:A2 *1111:B1 0.000116158
8 *1110:A2 *1111:B1 0.000141606
9 *1111:A2 *1111:B1 4.00541e-06
*RES
1 *1104:Y *1111:B1 18.855 
*END

*D_NET *127 0.00405266
*CONN
*I *1174:B1 I *D sky130_fd_sc_hd__a21oi_2
*I *1176:A2 I *D sky130_fd_sc_hd__o211a_2
*I *1106:B1 I *D sky130_fd_sc_hd__a21oi_2
*I *1105:X O *D sky130_fd_sc_hd__and3b_2
*CAP
1 *1174:B1 0
2 *1176:A2 0.00015309
3 *1106:B1 0.000564455
4 *1105:X 0
5 *127:23 0.000462974
6 *127:4 0.000874339
7 *1106:B1 *1104:B 0.000139122
8 *1106:B1 *1105:B 2.7441e-05
9 *1106:B1 *1367:A 0
10 *1106:B1 *300:8 4.99619e-05
11 *1106:B1 *300:42 0.000241483
12 *1106:B1 *365:10 0
13 *1106:B1 *366:6 0.00023344
14 *1106:B1 *369:10 7.9642e-06
15 *1106:B1 *369:27 5.1787e-05
16 *1176:A2 *1175:B1 2.16917e-05
17 *1176:A2 *239:122 8.6311e-05
18 *1176:A2 *368:67 9.14108e-05
19 *1176:A2 *370:22 0
20 *127:23 *1105:A_N 2.75229e-05
21 *127:23 *1105:B 7.22354e-05
22 *127:23 *1175:B1 4.99619e-05
23 *127:23 *1203:C1 5.30673e-05
24 *127:23 *1407:A 5.4155e-06
25 *127:23 *266:81 0.000117116
26 *127:23 *271:19 0.000265326
27 *127:23 *368:53 4.66108e-05
28 *127:23 *368:67 7.85634e-05
29 *127:23 *370:16 4.01778e-05
30 *1106:A2 *1106:B1 0
31 *1110:A2 *1106:B1 0
32 *1111:B1 *1106:B1 0.00016569
33 *1176:A1 *1176:A2 4.65291e-05
34 *1345:D *1106:B1 7.89767e-05
*RES
1 *1105:X *127:4 1.6 
2 *127:4 *1106:B1 18.68 
3 *127:4 *127:23 8.055 
4 *127:23 *1176:A2 8.75 
5 *127:23 *1174:B1 1.6 
*END

*D_NET *128 0.000341895
*CONN
*I *1107:B I *D sky130_fd_sc_hd__nor2_2
*I *1106:Y O *D sky130_fd_sc_hd__a21oi_2
*CAP
1 *1107:B 0.000146802
2 *1106:Y 0.000146802
3 *1107:B *1074:A 4.82919e-05
4 *1107:B *1173:A 0
*RES
1 *1106:Y *1107:B 5.405 
*END

*D_NET *129 0.00242258
*CONN
*I *1110:B1 I *D sky130_fd_sc_hd__o31ai_2
*I *1108:X O *D sky130_fd_sc_hd__or3b_2
*CAP
1 *1110:B1 0.000937816
2 *1108:X 0.000937816
3 *1110:B1 *1203:C1 2.46089e-05
4 *1110:B1 *239:10 1.53309e-05
5 *1110:B1 *239:23 0.00011929
6 *1110:B1 *239:105 7.62961e-05
7 *1110:B1 *239:110 4.15323e-05
8 *1110:B1 *266:75 3.68682e-05
9 *1110:B1 *266:81 0
10 *1108:B *1110:B1 9.6227e-05
11 *1110:A2 *1110:B1 0
12 *1345:D *1110:B1 6.51276e-05
13 *1348:A *1110:B1 7.16702e-05
*RES
1 *1108:X *1110:B1 24.85 
*END

*D_NET *130 0.00112282
*CONN
*I *1112:B1 I *D sky130_fd_sc_hd__a31o_2
*I *1111:X O *D sky130_fd_sc_hd__a221o_2
*CAP
1 *1112:B1 0.000332643
2 *1111:X 0.000332643
3 *1112:B1 *239:122 4.86165e-05
4 *1112:B1 *300:42 4.21973e-05
5 *1112:B1 *370:26 3.3814e-05
6 *1111:A2 *1112:B1 0.000239807
7 *1155:C *1112:B1 9.31022e-05
*RES
1 *1111:X *1112:B1 12.225 
*END

*D_NET *131 0.00115929
*CONN
*I *1148:B I *D sky130_fd_sc_hd__and2_2
*I *1151:C1 I *D sky130_fd_sc_hd__o2111a_2
*I *1113:Y O *D sky130_fd_sc_hd__nand2_2
*CAP
1 *1148:B 0.000146909
2 *1151:C1 0.000125343
3 *1113:Y 0
4 *131:4 0.000272252
5 *1148:B *1113:A 4.82863e-05
6 *1148:B *1113:B 0.000120655
7 *1148:B *1150:C1 9.80032e-06
8 *1148:B *142:38 0.00015896
9 *1148:A *1148:B 4.21973e-05
10 *1151:A2 *1151:C1 5.83121e-06
11 *1151:B1 *1151:C1 9.14049e-05
12 *1295:D *1151:C1 4.29107e-05
13 *116:18 *1151:C1 9.47454e-05
*RES
1 *1113:Y *131:4 1.6 
2 *131:4 *1151:C1 7.865 
3 *131:4 *1148:B 4.825 
*END

*D_NET *132 0.00117755
*CONN
*I *1149:A I *D sky130_fd_sc_hd__nor2_2
*I *1144:B I *D sky130_fd_sc_hd__nor2_2
*I *1114:X O *D sky130_fd_sc_hd__and3_2
*CAP
1 *1149:A 0.000169972
2 *1144:B 0.000171784
3 *1114:X 0.000341756
4 *1144:B *1145:A 0.000106011
5 *1144:B *1145:B 2.38465e-05
6 *1144:B *243:71 9.5433e-05
7 *1101:C *1149:A 0.000120186
8 *1148:A *1144:B 3.00381e-05
9 *1148:A *1149:A 0.00011852
*RES
1 *1114:X *1144:B 10.32 
2 *1114:X *1149:A 10.41 
*END

*D_NET *133 0.00549016
*CONN
*I *1145:A I *D sky130_fd_sc_hd__nor2_2
*I *1142:A2 I *D sky130_fd_sc_hd__o21ai_2
*I *1116:B I *D sky130_fd_sc_hd__and2_2
*I *1138:A1 I *D sky130_fd_sc_hd__a21o_2
*I *1118:B I *D sky130_fd_sc_hd__and3_2
*I *1119:C I *D sky130_fd_sc_hd__and4_2
*I *1115:X O *D sky130_fd_sc_hd__and4_2
*CAP
1 *1145:A 0.00028822
2 *1142:A2 0.000188961
3 *1116:B 0
4 *1138:A1 0.000130929
5 *1118:B 0
6 *1119:C 0.000231713
7 *1115:X 1.19504e-05
8 *133:47 0.000188961
9 *133:16 0.000316429
10 *133:14 0.000300042
11 *133:10 0.000548549
12 *133:6 0.000764324
13 *1119:C *1119:B 9.46121e-05
14 *1119:C *1119:D 0.000310424
15 *1119:C *1136:A1 6.28843e-05
16 *1119:C *135:8 8.76033e-05
17 *1119:C *264:96 4.66108e-05
18 *1119:C *349:47 3.983e-05
19 *1138:A1 *1138:A2 0.000163199
20 *1138:A1 *349:16 2.71072e-05
21 *1142:A2 *1143:B 4.82863e-05
22 *1142:A2 *134:8 9.45938e-05
23 *1142:A2 *264:96 2.96426e-05
24 *1145:A *1101:B 7.27194e-05
25 *1145:A *1115:B 1.43622e-05
26 *1145:A *1115:D 0.000303281
27 *1145:A *1146:A2 3.63576e-05
28 *1145:A *1146:A3 0.000305067
29 *1145:A *1147:A 4.99619e-05
30 *1145:A *243:71 2.75538e-05
31 *1145:A *346:25 0.000131525
32 *133:6 *1115:B 2.69153e-05
33 *133:6 *1115:D 4.77769e-05
34 *133:10 *1089:D 0
35 *133:10 *1115:B 1.11025e-05
36 *133:10 *1143:B 0
37 *133:10 *1146:A3 2.98587e-05
38 *133:10 *135:8 4.49328e-05
39 *133:10 *347:10 0
40 *133:14 *1142:B1 0
41 *133:14 *135:8 2.75538e-05
42 *133:14 *264:96 7.06865e-05
43 *133:16 *1138:A2 1.12578e-05
44 *133:16 *264:96 7.40446e-05
45 *1101:C *1145:A 3.98782e-05
46 *1102:D *133:10 5.35141e-05
47 *1144:B *1145:A 0.000106011
48 *1148:A *1145:A 3.09233e-05
*RES
1 *1115:X *133:6 2.05 
2 *133:6 *133:10 10.265 
3 *133:10 *133:14 3.635 
4 *133:14 *133:16 1.14 
5 *133:16 *1119:C 11.255 
6 *133:16 *1118:B 1.6 
7 *133:14 *1138:A1 4.405 
8 *133:10 *133:47 2 
9 *133:47 *1116:B 1.6 
10 *133:47 *1142:A2 5.395 
11 *133:6 *1145:A 13.79 
*END

*D_NET *134 0.00256246
*CONN
*I *1141:A2 I *D sky130_fd_sc_hd__a21oi_2
*I *1143:A I *D sky130_fd_sc_hd__nor2_2
*I *1140:A2 I *D sky130_fd_sc_hd__o21ai_2
*I *1116:X O *D sky130_fd_sc_hd__and2_2
*CAP
1 *1141:A2 0
2 *1143:A 0.000350938
3 *1140:A2 0.00019777
4 *1116:X 0.000127938
5 *134:12 0.000725086
6 *134:8 0.000304316
7 *1143:A *1140:B1 1.10435e-05
8 *1143:A *1143:B 4.77807e-05
9 *134:8 *1140:B1 0.000354725
10 *134:8 *1143:B 3.00381e-05
11 *134:8 *264:96 8.65905e-05
12 *134:12 *1140:B1 0.000142061
13 *134:12 *1142:A1 0
14 *134:12 *1143:B 0
15 *134:12 *1289:CLK 8.95828e-05
16 *1142:A2 *134:8 9.45938e-05
*RES
1 *1116:X *134:8 5.86 
2 *134:8 *134:12 6.185 
3 *134:12 *1140:A2 6.48 
4 *134:12 *1143:A 8.715 
5 *134:8 *1141:A2 1.6 
*END

*D_NET *135 0.00215074
*CONN
*I *1138:A2 I *D sky130_fd_sc_hd__a21o_2
*I *1118:C I *D sky130_fd_sc_hd__and3_2
*I *1119:D I *D sky130_fd_sc_hd__and4_2
*I *1117:X O *D sky130_fd_sc_hd__and2_2
*CAP
1 *1138:A2 6.36997e-05
2 *1118:C 0
3 *1119:D 0.000199576
4 *1117:X 0.000211621
5 *135:23 6.36997e-05
6 *135:8 0.000411197
7 *1119:D *1119:A 6.36656e-05
8 *1119:D *1119:B 3.45679e-05
9 *1119:D *1139:A_N 9.77541e-05
10 *1119:D *1139:B 0
11 *1138:A2 *264:96 5.05521e-05
12 *1138:A2 *349:16 0.000201503
13 *1138:A2 *349:26 5.8493e-05
14 *135:8 *1089:D 0
15 *135:8 *1139:B 0
16 *135:8 *264:96 4.94404e-05
17 *135:8 *349:47 0
18 *1119:C *1119:D 0.000310424
19 *1119:C *135:8 8.76033e-05
20 *1138:A1 *1138:A2 0.000163199
21 *133:10 *135:8 4.49328e-05
22 *133:14 *135:8 2.75538e-05
23 *133:16 *1138:A2 1.12578e-05
*RES
1 *1117:X *135:8 7.53 
2 *135:8 *1119:D 8.43 
3 *135:8 *135:23 2 
4 *135:23 *1118:C 1.6 
5 *135:23 *1138:A2 4.48 
*END

*D_NET *136 0.0018535
*CONN
*I *1139:A_N I *D sky130_fd_sc_hd__and3b_2
*I *1136:A2 I *D sky130_fd_sc_hd__o21ai_2
*I *1118:X O *D sky130_fd_sc_hd__and3_2
*CAP
1 *1139:A_N 0.000317297
2 *1136:A2 3.93828e-05
3 *1118:X 0.000356855
4 *136:10 0.000713534
5 *1136:A2 *1119:B 0
6 *1136:A2 *137:20 0
7 *1139:A_N *1136:A1 0.000122325
8 *1139:A_N *137:10 3.23663e-05
9 *136:10 *1119:B 0
10 *136:10 *1136:B1 0
11 *136:10 *137:20 0
12 *136:10 *264:96 4.87317e-05
13 *136:10 *349:26 8.65961e-05
14 *136:10 *350:37 3.86607e-05
15 *1119:D *1139:A_N 9.77541e-05
*RES
1 *1118:X *136:10 8.94 
2 *136:10 *1136:A2 4.215 
3 *136:10 *1139:A_N 8.91 
*END

*D_NET *137 0.00452131
*CONN
*I *1137:A I *D sky130_fd_sc_hd__nor2_2
*I *1135:A2 I *D sky130_fd_sc_hd__a21oi_2
*I *1134:A2 I *D sky130_fd_sc_hd__o21ai_2
*I *1121:D I *D sky130_fd_sc_hd__and4_2
*I *1120:C I *D sky130_fd_sc_hd__and3_2
*I *1132:A2 I *D sky130_fd_sc_hd__a21o_2
*I *1119:X O *D sky130_fd_sc_hd__and4_2
*CAP
1 *1137:A 0
2 *1135:A2 0
3 *1134:A2 7.40769e-05
4 *1121:D 0.000120984
5 *1120:C 3.1644e-05
6 *1132:A2 0
7 *1119:X 0.000191953
8 *137:48 0.000211474
9 *137:37 0.000120152
10 *137:26 0.000255004
11 *137:20 0.000836734
12 *137:10 0.000845778
13 *1120:C *264:58 1.91597e-05
14 *1120:C *352:25 5.78262e-05
15 *1121:D *1121:C 4.82919e-05
16 *1121:D *242:18 0.000114492
17 *1121:D *351:43 6.0691e-05
18 *1134:A2 *264:58 0.000227261
19 *1134:A2 *352:38 8.40269e-05
20 *137:10 *1136:A1 5.05437e-05
21 *137:10 *1136:B1 4.99619e-05
22 *137:10 *1137:B 8.65961e-05
23 *137:20 *1135:A1 5.34747e-05
24 *137:20 *1136:B1 0.000134269
25 *137:20 *1288:CLK 7.88995e-05
26 *137:20 *242:24 0.000129236
27 *137:26 *1133:C 0
28 *137:26 *1135:A1 0
29 *137:26 *242:24 9.92331e-05
30 *137:26 *352:10 4.05182e-05
31 *137:37 *1132:A1 0.000140912
32 *137:37 *242:18 6.65635e-05
33 *137:37 *242:24 2.24336e-05
34 *137:37 *351:43 7.63883e-05
35 *137:37 *352:10 5.98004e-06
36 *137:48 *264:58 8.65961e-05
37 *137:48 *352:25 1.46828e-05
38 *137:48 *352:38 4.82863e-05
39 *1136:A2 *137:20 0
40 *1139:A_N *137:10 3.23663e-05
41 *1287:D *137:20 4.82319e-06
42 *136:10 *137:20 0
*RES
1 *1119:X *137:10 5.275 
2 *137:10 *137:20 13.255 
3 *137:20 *137:26 5.72 
4 *137:26 *1132:A2 3.6 
5 *137:26 *137:37 4.655 
6 *137:37 *1120:C 2.41 
7 *137:37 *137:48 0.795 
8 *137:48 *1121:D 7.775 
9 *137:48 *1134:A2 3.775 
10 *137:20 *1135:A2 1.6 
11 *137:10 *1137:A 1.6 
*END

*D_NET *138 0.00147299
*CONN
*I *1130:A2 I *D sky130_fd_sc_hd__o21ai_2
*I *1133:A_N I *D sky130_fd_sc_hd__and3b_2
*I *1120:X O *D sky130_fd_sc_hd__and3_2
*CAP
1 *1130:A2 0.000143903
2 *1133:A_N 0.000239978
3 *1120:X 8.88381e-05
4 *138:8 0.000472719
5 *1130:A2 *1121:C 0
6 *1130:A2 *1133:B 0
7 *1130:A2 *264:39 0
8 *1130:A2 *264:41 0
9 *1130:A2 *351:43 0
10 *1130:A2 *352:25 4.99961e-05
11 *1133:A_N *1133:B 0
12 *1133:A_N *1133:C 0.000346268
13 *1133:A_N *352:10 1.01661e-05
14 *1133:A_N *352:25 5.00612e-05
15 *138:8 *264:58 7.10578e-05
*RES
1 *1120:X *138:8 4.74 
2 *138:8 *1133:A_N 9.315 
3 *138:8 *1130:A2 6.255 
*END

*D_NET *139 0.00255163
*CONN
*I *1131:A I *D sky130_fd_sc_hd__nor2_2
*I *1126:A3 I *D sky130_fd_sc_hd__a31o_2
*I *1122:B I *D sky130_fd_sc_hd__nand2_2
*I *1128:B I *D sky130_fd_sc_hd__or2_2
*I *1121:X O *D sky130_fd_sc_hd__and4_2
*CAP
1 *1131:A 0
2 *1126:A3 0
3 *1122:B 0.000156534
4 *1128:B 2.74599e-05
5 *1121:X 0.000174535
6 *139:22 0.00036962
7 *139:16 0.000378892
8 *139:12 0.000367801
9 *1122:B *1122:A 0.000124895
10 *1122:B *1127:A2 0
11 *1122:B *1129:A 0.000124895
12 *1122:B *1129:C 6.44134e-05
13 *1122:B *264:33 0
14 *1122:B *342:19 2.69443e-06
15 *1128:B *1330:CLK 2.69153e-05
16 *139:12 *1088:A 4.77769e-05
17 *139:12 *1088:C 4.28112e-06
18 *139:12 *1121:C 7.1624e-05
19 *139:12 *1131:B 0.000109367
20 *139:16 *1088:A 0.000146953
21 *139:16 *1126:A2 3.75203e-05
22 *139:22 *1126:A1 2.0172e-05
23 *139:22 *1126:A2 4.89395e-05
24 *139:22 *1282:CLK 7.35863e-05
25 *139:22 *342:19 5.42475e-05
26 *139:22 *342:21 4.58262e-06
27 *1381:A *139:16 2.01737e-05
28 *1381:A *139:22 9.37556e-05
*RES
1 *1121:X *139:12 9.47 
2 *139:12 *139:16 3.57 
3 *139:16 *139:22 6.635 
4 *139:22 *1128:B 4.05 
5 *139:22 *1122:B 7.395 
6 *139:16 *1126:A3 1.6 
7 *139:12 *1131:A 1.6 
*END

*D_NET *140 0.00177995
*CONN
*I *1129:A I *D sky130_fd_sc_hd__and3_2
*I *1127:A2 I *D sky130_fd_sc_hd__a21oi_2
*I *1122:Y O *D sky130_fd_sc_hd__nand2_2
*CAP
1 *1129:A 0.000164574
2 *1127:A2 0.000495489
3 *1122:Y 0.000660063
4 *1127:A2 *1126:A2 1.64056e-05
5 *1129:A *1122:A 6.77501e-05
6 *1122:B *1127:A2 0
7 *1122:B *1129:A 0.000124895
8 *1127:A1 *1127:A2 0.000201838
9 *1381:A *1127:A2 4.89395e-05
*RES
1 *1122:Y *1127:A2 15.45 
2 *1122:Y *1129:A 6.065 
*END

*D_NET *141 0.000816132
*CONN
*I *1187:B I *D sky130_fd_sc_hd__or2_2
*I *1124:A2 I *D sky130_fd_sc_hd__o21a_2
*I *1123:X O *D sky130_fd_sc_hd__or2_2
*CAP
1 *1187:B 5.06211e-05
2 *1124:A2 0
3 *1123:X 0.000159316
4 *141:12 0.000209937
5 *1187:B *1187:A 9.16226e-05
6 *1187:B *142:12 4.66826e-05
7 *141:12 *1146:A3 0.000164874
8 *141:12 *1150:A1 0
9 *141:12 *1150:A2 9.30787e-05
10 *1295:D *141:12 0
*RES
1 *1123:X *141:12 8.21 
2 *141:12 *1124:A2 1.6 
3 *141:12 *1187:B 3.115 
*END

*D_NET *142 0.00482303
*CONN
*I *1151:D1 I *D sky130_fd_sc_hd__o2111a_2
*I *1147:A I *D sky130_fd_sc_hd__and2_2
*I *1150:B1 I *D sky130_fd_sc_hd__o311a_2
*I *1364:A I *D sky130_fd_sc_hd__clkdlybuf4s25_1
*I *1124:X O *D sky130_fd_sc_hd__o21a_2
*CAP
1 *1151:D1 4.53112e-05
2 *1147:A 0.000340389
3 *1150:B1 8.24772e-06
4 *1364:A 0.000178311
5 *1124:X 0.000353974
6 *142:38 0.000726267
7 *142:16 0.00045784
8 *142:12 0.000965822
9 *1147:A *1146:B2 2.75145e-05
10 *1147:A *243:71 0.000206319
11 *1150:B1 *1150:A2 3.26889e-05
12 *1151:D1 *243:71 6.55328e-05
13 *1364:A *1123:A 4.07951e-05
14 *1364:A *1150:A2 1.61831e-05
15 *1364:A *370:26 2.75145e-05
16 *142:12 *1146:A3 5.93757e-05
17 *142:12 *1150:A2 9.11893e-05
18 *142:12 *1187:A 0.000157906
19 *142:12 *344:14 0
20 *142:16 *1150:A2 0.000258614
21 *142:16 *1150:C1 3.99879e-05
22 *142:38 *1100:B 4.66108e-05
23 *142:38 *1113:A 3.96737e-05
24 *142:38 *1150:C1 4.91424e-05
25 *1145:A *1147:A 4.99619e-05
26 *1148:A *1147:A 0.000175848
27 *1148:B *142:38 0.00015896
28 *1150:A3 *1364:A 9.27495e-05
29 *1151:B1 *1147:A 2.25075e-05
30 *1151:B1 *1151:D1 4.11112e-05
31 *1187:B *142:12 4.66826e-05
*RES
1 *1124:X *142:12 11.375 
2 *142:12 *142:16 3.915 
3 *142:16 *1364:A 4.93 
4 *142:16 *1150:B1 1.96 
5 *142:12 *142:38 6.245 
6 *142:38 *1147:A 10.92 
7 *142:38 *1151:D1 4.98 
*END

*D_NET *143 0.000276046
*CONN
*I *1126:B1 I *D sky130_fd_sc_hd__a31o_2
*I *1125:Y O *D sky130_fd_sc_hd__inv_2
*CAP
1 *1126:B1 6.81177e-05
2 *1125:Y 6.81177e-05
3 *1126:B1 *1131:B 3.75882e-06
4 *1126:B1 *264:39 0.000136052
*RES
1 *1125:Y *1126:B1 8.835 
*END

*D_NET *144 0.000397306
*CONN
*I *1127:B1 I *D sky130_fd_sc_hd__a21oi_2
*I *1126:X O *D sky130_fd_sc_hd__a31o_2
*CAP
1 *1127:B1 8.00563e-05
2 *1126:X 8.00563e-05
3 *1127:B1 *1126:A2 6.81888e-05
4 *1127:A1 *1127:B1 8.64599e-05
5 *1381:A *1127:B1 8.25446e-05
*RES
1 *1126:X *1127:B1 5.375 
*END

*D_NET *145 0.000346324
*CONN
*I *1129:C I *D sky130_fd_sc_hd__and3_2
*I *1128:X O *D sky130_fd_sc_hd__or2_2
*CAP
1 *1129:C 9.3239e-05
2 *1128:X 9.3239e-05
3 *1129:C *1122:A 0
4 *1129:C *264:33 9.5433e-05
5 *1122:B *1129:C 6.44134e-05
6 *124:30 *1129:C 0
*RES
1 *1128:X *1129:C 9.345 
*END

*D_NET *146 0.000642243
*CONN
*I *1131:B I *D sky130_fd_sc_hd__nor2_2
*I *1130:Y O *D sky130_fd_sc_hd__o21ai_2
*CAP
1 *1131:B 0.000218377
2 *1130:Y 0.000218377
3 *1131:B *1121:C 0
4 *1131:B *264:39 0
5 *1126:B1 *1131:B 3.75882e-06
6 *1284:D *1131:B 9.23635e-05
7 *139:12 *1131:B 0.000109367
*RES
1 *1130:Y *1131:B 11.67 
*END

*D_NET *147 0.00107211
*CONN
*I *1133:C I *D sky130_fd_sc_hd__and3b_2
*I *1132:X O *D sky130_fd_sc_hd__a21o_2
*CAP
1 *1133:C 0.000335937
2 *1132:X 0.000335937
3 *1133:C *352:10 5.39718e-05
4 *1133:A_N *1133:C 0.000346268
5 *137:26 *1133:C 0
*RES
1 *1132:X *1133:C 13.5037 
*END

*D_NET *148 0.000578118
*CONN
*I *1135:B1 I *D sky130_fd_sc_hd__a21oi_2
*I *1134:Y O *D sky130_fd_sc_hd__o21ai_2
*CAP
1 *1135:B1 0.000141015
2 *1134:Y 0.000141015
3 *1135:B1 *1135:A1 0.000296088
4 *1135:B1 *351:8 0
5 *1287:D *1135:B1 0
*RES
1 *1134:Y *1135:B1 10.62 
*END

*D_NET *149 0.000310745
*CONN
*I *1137:B I *D sky130_fd_sc_hd__nor2_2
*I *1136:Y O *D sky130_fd_sc_hd__o21ai_2
*CAP
1 *1137:B 0.000101817
2 *1136:Y 0.000101817
3 *1137:B *1136:B1 2.0514e-05
4 *137:10 *1137:B 8.65961e-05
*RES
1 *1136:Y *1137:B 5.045 
*END

*D_NET *150 0.000816731
*CONN
*I *1139:C I *D sky130_fd_sc_hd__and3b_2
*I *1138:X O *D sky130_fd_sc_hd__a21o_2
*CAP
1 *1139:C 0.00028935
2 *1138:X 0.00028935
3 *1139:C *1119:A 0
4 *1139:C *1139:B 0
5 *1139:C *349:12 9.37731e-05
6 *1288:D *1139:C 0.000144258
*RES
1 *1138:X *1139:C 12.4575 
*END

*D_NET *151 0.000578214
*CONN
*I *1141:B1 I *D sky130_fd_sc_hd__a21oi_2
*I *1140:Y O *D sky130_fd_sc_hd__o21ai_2
*CAP
1 *1141:B1 0.000122659
2 *1140:Y 0.000122659
3 *1141:B1 *1140:A1 0.000151206
4 *1141:B1 *1140:B1 8.86179e-05
5 *1141:B1 *1374:A 0
6 *1289:D *1141:B1 9.30717e-05
*RES
1 *1140:Y *1141:B1 10.875 
*END

*D_NET *152 0.00106176
*CONN
*I *1143:B I *D sky130_fd_sc_hd__nor2_2
*I *1142:Y O *D sky130_fd_sc_hd__o21ai_2
*CAP
1 *1143:B 0.000374547
2 *1142:Y 0.000374547
3 *1143:B *1142:A1 0.000116165
4 *1143:B *1142:B1 5.53249e-06
5 *1143:B *1289:CLK 0
6 *1102:D *1143:B 2.69443e-06
7 *1142:A2 *1143:B 4.82863e-05
8 *1143:A *1143:B 4.77807e-05
9 *1290:D *1143:B 6.21647e-05
10 *133:10 *1143:B 0
11 *134:8 *1143:B 3.00381e-05
12 *134:12 *1143:B 0
*RES
1 *1142:Y *1143:B 14.07 
*END

*D_NET *153 0.000598203
*CONN
*I *1145:B I *D sky130_fd_sc_hd__nor2_2
*I *1144:Y O *D sky130_fd_sc_hd__nor2_2
*CAP
1 *1145:B 0.000135231
2 *1144:Y 0.000135231
3 *1145:B *1146:B2 8.97716e-05
4 *1145:B *1147:B 0
5 *1145:B *243:71 0.000166346
6 *1145:B *346:8 4.77769e-05
7 *1144:B *1145:B 2.38465e-05
*RES
1 *1144:Y *1145:B 10.56 
*END

*D_NET *154 0.000643465
*CONN
*I *1146:B2 I *D sky130_fd_sc_hd__a32o_2
*I *1145:Y O *D sky130_fd_sc_hd__nor2_2
*CAP
1 *1146:B2 0.000202147
2 *1145:Y 0.000202147
3 *1146:B2 *1147:B 0.000121884
4 *1145:B *1146:B2 8.97716e-05
5 *1147:A *1146:B2 2.75145e-05
*RES
1 *1145:Y *1146:B2 11.775 
*END

*D_NET *155 0.00053277
*CONN
*I *1147:B I *D sky130_fd_sc_hd__and2_2
*I *1146:X O *D sky130_fd_sc_hd__a32o_2
*CAP
1 *1147:B 0.000166089
2 *1146:X 0.000166089
3 *1145:B *1147:B 0
4 *1146:B2 *1147:B 0.000121884
5 *1291:D *1147:B 7.87077e-05
*RES
1 *1146:X *1147:B 11.13 
*END

*D_NET *156 0.000318093
*CONN
*I *1149:B I *D sky130_fd_sc_hd__nor2_2
*I *1148:X O *D sky130_fd_sc_hd__and2_2
*CAP
1 *1149:B 0.000123866
2 *1148:X 0.000123866
3 *1149:B *1150:C1 5.21046e-05
4 *1149:B *243:71 1.82563e-05
*RES
1 *1148:X *1149:B 9.285 
*END

*D_NET *157 0.00191399
*CONN
*I *1150:C1 I *D sky130_fd_sc_hd__o311a_2
*I *1149:Y O *D sky130_fd_sc_hd__nor2_2
*CAP
1 *1150:C1 0.000610762
2 *1149:Y 0.000610762
3 *1150:C1 *1100:B 1.56428e-05
4 *1150:C1 *1113:A 4.08514e-05
5 *1150:C1 *1113:B 1.91597e-05
6 *1150:C1 *1150:A2 0.000141685
7 *1150:C1 *243:71 0.00011852
8 *1148:A *1150:C1 0.000158965
9 *1148:B *1150:C1 9.80032e-06
10 *1149:B *1150:C1 5.21046e-05
11 *122:10 *1150:C1 4.66108e-05
12 *142:16 *1150:C1 3.99879e-05
13 *142:38 *1150:C1 4.91424e-05
*RES
1 *1149:Y *1150:C1 18.03 
*END

*D_NET *158 0.0156032
*CONN
*I *1164:B I *D sky130_fd_sc_hd__or2_2
*I *1162:B I *D sky130_fd_sc_hd__or2_2
*I *1170:B I *D sky130_fd_sc_hd__or2_2
*I *1160:B I *D sky130_fd_sc_hd__or2_2
*I *1158:B I *D sky130_fd_sc_hd__or2_2
*I *1168:B I *D sky130_fd_sc_hd__or2_2
*I *1166:B I *D sky130_fd_sc_hd__or2_2
*I *1156:B I *D sky130_fd_sc_hd__or2_2
*I *1154:X O *D sky130_fd_sc_hd__and3_2
*CAP
1 *1164:B 0
2 *1162:B 0.00011248
3 *1170:B 2.08101e-05
4 *1160:B 0
5 *1158:B 2.08101e-05
6 *1168:B 0.000245231
7 *1166:B 0.000228335
8 *1156:B 0
9 *1154:X 0.00077275
10 *158:67 0.000628673
11 *158:63 0.000910949
12 *158:53 0.00155481
13 *158:43 0.00142201
14 *158:31 0.000971009
15 *158:27 0.000900625
16 *158:16 0.00139627
17 *1162:B *1162:A 0.000187766
18 *1162:B *1163:B1 1.16578e-05
19 *1162:B *1389:A 5.4239e-05
20 *1162:B *159:91 0
21 *1166:B *1159:C1 0.000225175
22 *1166:B *1166:A 0.000118081
23 *1166:B *1167:B1 4.66108e-05
24 *1166:B *1192:B1_N 0.000321515
25 *1166:B *1449:A 0.000128143
26 *1166:B *159:38 2.03321e-05
27 *1166:B *268:23 0.000363653
28 *1168:B *1168:A 8.8266e-05
29 *1168:B *1204:A1 7.07801e-05
30 *1168:B *1312:CLK 0.000162762
31 *1168:B *1382:A 0
32 *1168:B *1449:A 9.84761e-05
33 *1168:B *159:38 2.04147e-05
34 *1168:B *172:27 6.10014e-05
35 *158:16 *1068:A 0.000120655
36 *158:16 *1156:A 3.23663e-05
37 *158:16 *1157:B1 2.11084e-05
38 *158:16 *1190:B 0.000124895
39 *158:16 *1190:C 0.000100441
40 *158:16 *1190:D 0.000445648
41 *158:27 *1156:A 4.99619e-05
42 *158:27 *1157:A2 0
43 *158:27 *1157:B1 0
44 *158:27 *1165:B1 8.09021e-06
45 *158:27 *1186:A 0
46 *158:27 *1389:A 0
47 *158:27 *1391:A 0.000120186
48 *158:27 *1393:A 9.78734e-05
49 *158:27 *1444:A 0.000118279
50 *158:27 *255:10 0
51 *158:31 *1162:A 5.23362e-05
52 *158:31 *1163:C1 4.31189e-05
53 *158:31 *1164:A 3.89528e-05
54 *158:31 *1165:B1 0.000139843
55 *158:31 *1389:A 5.43211e-05
56 *158:31 *1392:A 0.000117832
57 *158:31 *255:10 0
58 *158:43 *1163:A1 4.43871e-06
59 *158:43 *1197:B1 0.000155497
60 *158:43 *1299:CLK 4.82919e-05
61 *158:43 *1299:D 0.000311016
62 *158:43 *1447:A 0.000118533
63 *158:43 *291:12 1.46744e-05
64 *158:53 *1160:A 4.66108e-05
65 *158:53 *1171:B1 0.000195505
66 *158:53 *1206:B1_N 0
67 *158:53 *1298:D 6.27438e-05
68 *158:53 *247:19 0
69 *158:53 *247:64 0.000199833
70 *158:63 *1160:A 4.66108e-05
71 *158:63 *1194:A1 4.54719e-05
72 *158:63 *1194:B1_N 0
73 *158:63 *1207:C1 0.000312778
74 *158:63 *1387:A 0.000312771
75 *158:63 *172:17 7.06865e-05
76 *158:63 *247:19 0
77 *158:67 *1158:A 3.67871e-05
78 *158:67 *1159:B1 1.47347e-05
79 *158:67 *1159:C1 5.83121e-06
80 rx_data[4] *158:31 0
81 *1097:A *158:16 5.27201e-05
82 *1196:A1 *158:43 2.75229e-05
83 *1296:D *158:27 0.000240933
84 *1312:D *1168:B 9.16237e-05
85 *1317:D *158:53 0.000133408
86 *1388:A *158:53 0.000111455
87 *1388:A *158:63 4.66108e-05
88 *93:12 *158:16 4.66108e-05
*RES
1 *1154:X *158:16 14.98 
2 *158:16 *1156:B 1.6 
3 *158:16 *158:27 15.83 
4 *158:27 *158:31 6.42 
5 *158:31 *158:43 14.76 
6 *158:43 *158:53 17.125 
7 *158:53 *158:63 16.45 
8 *158:63 *158:67 3.83 
9 *158:67 *1166:B 11.985 
10 *158:67 *1168:B 9.945 
11 *158:63 *1158:B 1.96 
12 *158:53 *1160:B 1.6 
13 *158:43 *1170:B 1.96 
14 *158:31 *1162:B 6.555 
15 *158:27 *1164:B 3.6 
*END

*D_NET *159 0.0162434
*CONN
*I *1163:A2 I *D sky130_fd_sc_hd__o211a_2
*I *1165:A2 I *D sky130_fd_sc_hd__o211a_2
*I *1157:A2 I *D sky130_fd_sc_hd__o211a_2
*I *1171:A2 I *D sky130_fd_sc_hd__o211a_2
*I *1161:A2 I *D sky130_fd_sc_hd__o211a_2
*I *1169:A2 I *D sky130_fd_sc_hd__o211a_2
*I *1159:A2 I *D sky130_fd_sc_hd__o211a_2
*I *1167:A2 I *D sky130_fd_sc_hd__o211a_2
*I *1155:Y O *D sky130_fd_sc_hd__nand3_2
*CAP
1 *1163:A2 9.09873e-05
2 *1165:A2 6.18955e-05
3 *1157:A2 0.000227421
4 *1171:A2 2.24247e-05
5 *1161:A2 0
6 *1169:A2 0.000419641
7 *1159:A2 0
8 *1167:A2 0
9 *1155:Y 0.000768675
10 *159:91 0.000485122
11 *159:89 0.000768451
12 *159:76 0.000927188
13 *159:59 0.000900384
14 *159:38 0.00106647
15 *159:27 0.000454443
16 *159:10 0.00105357
17 *1157:A2 *1157:B1 4.43871e-06
18 *1157:A2 *1389:A 0.000653585
19 *1163:A2 *1163:A1 7.24402e-05
20 *1165:A2 *1165:A1 4.00541e-06
21 *1165:A2 *1165:C1 4.00541e-06
22 *1165:A2 *269:66 2.49909e-05
23 *1169:A2 *1204:B1_N 0.000201508
24 *1169:A2 *1205:B1 4.60584e-05
25 *1169:A2 *1382:A 8.8266e-05
26 *1169:A2 *185:66 3.80606e-05
27 *1169:A2 *268:46 7.89689e-05
28 *1171:A2 *1171:A1 2.04306e-06
29 *1171:A2 *1171:B1 9.53428e-06
30 *159:10 *1167:B1 9.50342e-06
31 *159:10 *1193:A1 0
32 *159:10 *1203:A3 4.99619e-05
33 *159:10 *1315:CLK 7.35729e-05
34 *159:10 *1347:CLK 0
35 *159:10 *1367:A 0.000231557
36 *159:10 *246:56 0.000157278
37 *159:10 *266:81 0
38 *159:10 *266:90 0
39 *159:10 *266:102 0.000195476
40 *159:10 *266:117 0.000224698
41 *159:27 *1159:C1 0.000147467
42 *159:27 *1167:B1 0.000355875
43 *159:27 *1367:A 0.000765014
44 *159:27 *1378:A 0.00011379
45 *159:27 *268:23 0.000243723
46 *159:38 *1159:C1 5.53249e-06
47 *159:38 *1204:A1 0.000130707
48 *159:38 *1204:A2 3.26084e-05
49 *159:38 *1205:A3 3.18219e-05
50 *159:38 *1205:B1 0
51 *159:38 *1312:CLK 2.23407e-05
52 *159:38 *1367:A 0.000152127
53 *159:38 *172:27 0.000116158
54 *159:59 *1194:B1_N 0.000316799
55 *159:59 *185:66 4.92993e-05
56 *159:59 *269:129 0.00031916
57 *159:76 *1171:B1 1.4389e-05
58 *159:76 *1171:C1 0.000244183
59 *159:76 *1194:B1_N 9.50342e-06
60 *159:76 *1446:A 0.000354725
61 *159:76 *1449:A 0
62 *159:76 *289:10 0.00023873
63 *159:89 *1163:A1 0.000163175
64 *159:89 *1171:A1 3.00155e-05
65 *159:89 *1451:A 4.60584e-05
66 *159:89 *287:6 1.03423e-05
67 *159:91 *1162:A 0
68 *159:91 *1163:B1 0
69 *159:91 *1163:C1 0
70 *159:91 *1389:A 0.000332107
71 rx_data[2] *159:76 7.60965e-05
72 rx_data[5] *159:76 4.82919e-05
73 rx_data[7] *159:89 0.000624524
74 *1162:B *159:91 0
75 *1166:B *159:38 2.03321e-05
76 *1168:B *159:38 2.04147e-05
77 *1300:D *1157:A2 0.000162352
78 *1312:D *159:59 1.43717e-05
79 *1315:D *159:10 2.96426e-05
80 *1316:D *1169:A2 0.000201503
81 *1386:A *159:89 0.000739436
82 *1390:A *1157:A2 0.000118527
83 *1390:A *159:91 0.000525599
84 *119:50 *1157:A2 0
85 *158:27 *1157:A2 0
*RES
1 *1155:Y *159:10 14.985 
2 *159:10 *1167:A2 3.6 
3 *159:10 *159:27 11.67 
4 *159:27 *1159:A2 3.6 
5 *159:27 *159:38 6.695 
6 *159:38 *1169:A2 13.91 
7 *159:38 *159:59 9.92 
8 *159:59 *1161:A2 3.6 
9 *159:59 *159:76 12.65 
10 *159:76 *1171:A2 2.215 
11 *159:76 *159:89 14.705 
12 *159:89 *159:91 6.225 
13 *159:91 *1157:A2 11.355 
14 *159:91 *1165:A2 4.77 
15 *159:89 *1163:A2 5.1 
*END

*D_NET *160 0.00147393
*CONN
*I *1157:B1 I *D sky130_fd_sc_hd__o211a_2
*I *1156:X O *D sky130_fd_sc_hd__or2_2
*CAP
1 *1157:B1 0.000369445
2 *1156:X 0.000369445
3 *1157:B1 *1157:A1 0.000238361
4 *1157:B1 *1157:C1 3.57768e-05
5 *1157:B1 *1186:A 6.55328e-05
6 *1157:B1 *1191:A1 0.000321529
7 *1157:B1 *1389:A 4.82919e-05
8 *1157:A2 *1157:B1 4.43871e-06
9 *1296:D *1157:B1 0
10 *158:16 *1157:B1 2.11084e-05
11 *158:27 *1157:B1 0
*RES
1 *1156:X *1157:B1 16.11 
*END

*D_NET *161 0.000299982
*CONN
*I *1159:B1 I *D sky130_fd_sc_hd__o211a_2
*I *1158:X O *D sky130_fd_sc_hd__or2_2
*CAP
1 *1159:B1 5.85997e-05
2 *1158:X 5.85997e-05
3 *1159:B1 *1158:A 0.000121437
4 *1159:B1 *1159:C1 4.66108e-05
5 *158:67 *1159:B1 1.47347e-05
*RES
1 *1158:X *1159:B1 4.7 
*END

*D_NET *162 0.000405818
*CONN
*I *1161:B1 I *D sky130_fd_sc_hd__o211a_2
*I *1160:X O *D sky130_fd_sc_hd__or2_2
*CAP
1 *1161:B1 0.000182258
2 *1160:X 0.000182258
3 *1161:B1 *1161:A1 1.12643e-05
4 *1388:A *1161:B1 3.00381e-05
*RES
1 *1160:X *1161:B1 5.735 
*END

*D_NET *163 0.000434216
*CONN
*I *1163:B1 I *D sky130_fd_sc_hd__o211a_2
*I *1162:X O *D sky130_fd_sc_hd__or2_2
*CAP
1 *1163:B1 0.000171791
2 *1162:X 0.000171791
3 *1163:B1 *1163:C1 7.89767e-05
4 *1162:B *1163:B1 1.16578e-05
5 *159:91 *1163:B1 0
*RES
1 *1162:X *1163:B1 9.975 
*END

*D_NET *164 0.00120181
*CONN
*I *1165:B1 I *D sky130_fd_sc_hd__o211a_2
*I *1164:X O *D sky130_fd_sc_hd__or2_2
*CAP
1 *1165:B1 0.000275341
2 *1164:X 0.000275341
3 *1165:B1 *1389:A 0.000385365
4 *1165:B1 *1392:A 0.000117832
5 *158:27 *1165:B1 8.09021e-06
6 *158:31 *1165:B1 0.000139843
*RES
1 *1164:X *1165:B1 14.16 
*END

*D_NET *165 0.00112054
*CONN
*I *1167:B1 I *D sky130_fd_sc_hd__o211a_2
*I *1166:X O *D sky130_fd_sc_hd__or2_2
*CAP
1 *1167:B1 0.000222012
2 *1166:X 0.000222012
3 *1167:B1 *1166:A 4.0843e-05
4 *1167:B1 *1167:C1 7.89611e-05
5 *1167:B1 *268:23 0.000144721
6 *1166:B *1167:B1 4.66108e-05
7 *159:10 *1167:B1 9.50342e-06
8 *159:27 *1167:B1 0.000355875
*RES
1 *1166:X *1167:B1 13.215 
*END

*D_NET *166 0.000940184
*CONN
*I *1169:B1 I *D sky130_fd_sc_hd__o211a_2
*I *1168:X O *D sky130_fd_sc_hd__or2_2
*CAP
1 *1169:B1 0.000361306
2 *1168:X 0.000361306
3 *1169:B1 *1169:A1 0.000150718
4 *1169:B1 *1204:B1_N 4.82863e-05
5 *1169:B1 *268:50 1.85674e-05
*RES
1 *1168:X *1169:B1 8.84 
*END

*D_NET *167 0.00130949
*CONN
*I *1171:B1 I *D sky130_fd_sc_hd__o211a_2
*I *1170:X O *D sky130_fd_sc_hd__or2_2
*CAP
1 *1171:B1 0.000444559
2 *1170:X 0.000444559
3 *1171:B1 *1171:A1 2.63039e-05
4 *1171:B1 *1171:C1 1.85674e-05
5 *1171:B1 *1206:B1_N 0.000100348
6 *1171:B1 *1385:A 5.30673e-05
7 *1171:A2 *1171:B1 9.53428e-06
8 *1317:D *1171:B1 2.65814e-06
9 *158:53 *1171:B1 0.000195505
10 *159:76 *1171:B1 1.4389e-05
*RES
1 *1170:X *1171:B1 16.005 
*END

*D_NET *168 0.00072494
*CONN
*I *1175:B1 I *D sky130_fd_sc_hd__a21o_2
*I *1174:Y O *D sky130_fd_sc_hd__a21oi_2
*CAP
1 *1175:B1 0.000144383
2 *1174:Y 0.000144383
3 *1175:B1 *1184:A2 3.66286e-05
4 *1175:B1 *169:14 4.82919e-05
5 *1175:B1 *170:8 2.52454e-05
6 *1175:B1 *170:12 5.82757e-05
7 *1175:B1 *239:122 6.85156e-05
8 *1175:B1 *239:153 4.09732e-05
9 *1175:B1 *271:19 8.65905e-05
10 *1176:A2 *1175:B1 2.16917e-05
11 *127:23 *1175:B1 4.99619e-05
*RES
1 *1174:Y *1175:B1 11.295 
*END

*D_NET *169 0.00525338
*CONN
*I *1184:A2 I *D sky130_fd_sc_hd__a22o_2
*I *1182:A2 I *D sky130_fd_sc_hd__a22o_2
*I *1177:B I *D sky130_fd_sc_hd__or2_2
*I *1175:X O *D sky130_fd_sc_hd__a21o_2
*CAP
1 *1184:A2 0.000772888
2 *1182:A2 0.000158251
3 *1177:B 0
4 *1175:X 0.000310917
5 *169:18 0.000359136
6 *169:14 0.00128469
7 *1182:A2 *1178:A1 2.15594e-05
8 *1182:A2 *1178:B1 0.000141599
9 *1182:A2 *1182:B1 0.000154481
10 *1182:A2 *1369:A 0
11 *1182:A2 *170:12 0.000162325
12 *1182:A2 *179:39 1.4498e-05
13 *1182:A2 *271:76 2.16306e-05
14 *1182:A2 *354:20 2.66362e-05
15 *1182:A2 *354:28 4.75576e-05
16 *1184:A2 *1175:A1 0.00029048
17 *1184:A2 *1184:B1 8.65439e-05
18 *1184:A2 *1188:C1 0.000191649
19 *1184:A2 *239:153 1.9415e-05
20 *1184:A2 *355:16 3.30832e-05
21 *169:14 *170:12 0
22 *169:14 *239:110 7.98636e-05
23 *169:14 *239:122 2.86623e-05
24 *169:14 *239:153 7.03824e-05
25 *169:18 *1370:A 0
26 *169:18 *170:12 0.000459481
27 *169:18 *271:59 0.000155928
28 *169:18 *271:76 4.40812e-05
29 *169:18 *370:91 6.18832e-05
30 *1155:C *169:14 0.000122548
31 *1155:C *169:18 0
32 *1175:A2 *1184:A2 4.82863e-05
33 *1175:B1 *1184:A2 3.66286e-05
34 *1175:B1 *169:14 4.82919e-05
*RES
1 *1175:X *169:14 10.295 
2 *169:14 *169:18 7.46 
3 *169:18 *1177:B 3.6 
4 *169:18 *1182:A2 8.04 
5 *169:14 *1184:A2 12.1038 
*END

*D_NET *170 0.00490026
*CONN
*I *1184:B1 I *D sky130_fd_sc_hd__a22o_2
*I *1182:B1 I *D sky130_fd_sc_hd__a22o_2
*I *1178:A2 I *D sky130_fd_sc_hd__o211a_2
*I *1176:X O *D sky130_fd_sc_hd__o211a_2
*CAP
1 *1184:B1 0.000484761
2 *1182:B1 0.000216386
3 *1178:A2 7.05896e-05
4 *1176:X 0.000134124
5 *170:12 0.00063908
6 *170:8 0.00097099
7 *1178:A2 *1178:A1 1.89014e-05
8 *1182:B1 *1178:A1 7.06865e-05
9 *1182:B1 *179:39 1.17309e-05
10 *1182:B1 *239:153 2.86623e-05
11 *1182:B1 *246:46 0
12 *1182:B1 *354:20 0.000120655
13 *1184:B1 *1175:A1 0.000465398
14 *1184:B1 *1188:C1 7.60965e-05
15 *1184:B1 *239:153 1.71013e-05
16 *1184:B1 *271:45 0
17 *1184:B1 *355:16 3.26889e-05
18 *170:8 *1153:C 0
19 *170:8 *1420:A 6.68849e-05
20 *170:8 *239:122 0
21 *170:8 *368:67 4.75576e-05
22 *170:8 *370:18 9.30717e-05
23 *170:12 *239:153 0.000381328
24 *1175:B1 *170:8 2.52454e-05
25 *1175:B1 *170:12 5.82757e-05
26 *1176:A1 *170:8 7.21296e-06
27 *1182:A2 *1182:B1 0.000154481
28 *1182:A2 *170:12 0.000162325
29 *1184:A2 *1184:B1 8.65439e-05
30 *169:14 *170:12 0
31 *169:18 *170:12 0.000459481
*RES
1 *1176:X *170:8 6.6375 
2 *170:8 *170:12 9.0975 
3 *170:12 *1178:A2 4.665 
4 *170:12 *1182:B1 7.335 
5 *170:8 *1184:B1 13.1925 
*END

*D_NET *171 0.00047594
*CONN
*I *1178:B1 I *D sky130_fd_sc_hd__o211a_2
*I *1177:X O *D sky130_fd_sc_hd__or2_2
*CAP
1 *1178:B1 0.000103347
2 *1177:X 0.000103347
3 *1178:B1 *246:50 5.05521e-05
4 *1178:B1 *271:76 7.70938e-05
5 *1182:A2 *1178:B1 0.000141599
*RES
1 *1177:X *1178:B1 9.63 
*END

*D_NET *172 0.00477446
*CONN
*I *1194:A1 I *D sky130_fd_sc_hd__o21bai_2
*I *1195:A2 I *D sky130_fd_sc_hd__o311a_2
*I *1204:A1 I *D sky130_fd_sc_hd__o21bai_2
*I *1205:A2 I *D sky130_fd_sc_hd__o311a_2
*I *1181:A I *D sky130_fd_sc_hd__nand2_2
*I *1179:Y O *D sky130_fd_sc_hd__nand2_2
*CAP
1 *1194:A1 2.25824e-05
2 *1195:A2 2.01858e-05
3 *1204:A1 4.30772e-05
4 *1205:A2 0.000307072
5 *1181:A 3.50658e-05
6 *1179:Y 0
7 *172:27 0.000579148
8 *172:21 0.000595527
9 *172:17 0.000590621
10 *172:6 0.000256762
11 *1181:A *1207:C1 0.000140912
12 *1194:A1 *247:10 0
13 *1195:A2 *1194:A2 3.26889e-05
14 *1195:A2 *267:17 3.26889e-05
15 *1204:A1 *1312:CLK 9.50342e-06
16 *1205:A2 *1205:A1 1.33293e-05
17 *1205:A2 *1205:A3 0.000237243
18 *1205:A2 *1205:C1 0.000133583
19 *172:17 *1207:C1 0.000313022
20 *172:17 *1369:A 8.1552e-05
21 *172:17 *247:10 0
22 *172:21 *1194:A2 0.000312958
23 *172:21 *267:31 5.44586e-05
24 *172:27 *267:17 0.000234685
25 *172:27 *267:31 1.33293e-05
26 *1168:B *1204:A1 7.07801e-05
27 *1168:B *172:27 6.10014e-05
28 *1179:B *172:17 6.92392e-05
29 *94:10 *1181:A 0.000140912
30 *94:10 *172:17 9.50342e-06
31 *158:63 *1194:A1 4.54719e-05
32 *158:63 *172:17 7.06865e-05
33 *159:38 *1204:A1 0.000130707
34 *159:38 *172:27 0.000116158
*RES
1 *1179:Y *172:6 3.6 
2 *172:6 *1181:A 5.235 
3 *172:6 *172:17 6.225 
4 *172:17 *172:21 6.59 
5 *172:21 *172:27 5.9 
6 *172:27 *1205:A2 7.86 
7 *172:27 *1204:A1 5.235 
8 *172:21 *1195:A2 2.215 
9 *172:17 *1194:A1 4.215 
*END

*D_NET *173 0.00331388
*CONN
*I *1181:B I *D sky130_fd_sc_hd__nand2_2
*I *1192:A1 I *D sky130_fd_sc_hd__o21bai_2
*I *1193:A2 I *D sky130_fd_sc_hd__o311a_2
*I *1202:A1 I *D sky130_fd_sc_hd__o21bai_2
*I *1203:A2 I *D sky130_fd_sc_hd__o311a_2
*I *1180:X O *D sky130_fd_sc_hd__or2_2
*CAP
1 *1181:B 2.44714e-05
2 *1192:A1 0
3 *1193:A2 0.00029421
4 *1202:A1 0
5 *1203:A2 0.000170551
6 *1180:X 0
7 *173:38 0.000348094
8 *173:36 0.000121289
9 *173:12 0.000315283
10 *173:6 0.000187665
11 *1181:B *179:39 2.49909e-05
12 *1193:A2 *1193:B1 0.000141938
13 *1193:A2 *1193:C1 2.75145e-05
14 *1193:A2 *1207:C1 0
15 *1193:A2 *1308:CLK 0.000152807
16 *1193:A2 *179:39 4.66108e-05
17 *1193:A2 *179:45 0
18 *1193:A2 *179:60 0
19 *1193:A2 *246:76 0.000185405
20 *1193:A2 *269:97 7.35729e-05
21 *1203:A2 *1193:A1 0
22 *1203:A2 *1203:B1 4.66108e-05
23 *1203:A2 *246:56 0.00016651
24 *1203:A2 *266:102 0.000263924
25 *173:12 *1207:C1 1.26626e-05
26 *173:12 *1370:A 0.000114753
27 *173:12 *185:12 0.000115779
28 *173:12 *246:50 0.000123225
29 *173:12 *246:56 1.0183e-05
30 *173:12 *246:76 8.47629e-05
31 *173:36 *1179:A 0.00011852
32 *173:36 *1207:C1 1.34361e-05
33 *173:36 *246:76 5.30144e-05
34 *173:38 *179:39 7.61024e-05
*RES
1 *1180:X *173:6 3.6 
2 *173:6 *173:12 6.485 
3 *173:12 *1203:A2 9.77 
4 *173:12 *1202:A1 1.6 
5 *173:6 *173:36 3.635 
6 *173:36 *173:38 1.14 
7 *173:38 *1193:A2 12.32 
8 *173:38 *1192:A1 1.6 
9 *173:36 *1181:B 2.05 
*END

*D_NET *174 7.60921e-05
*CONN
*I *1182:B2 I *D sky130_fd_sc_hd__a22o_2
*I *1181:Y O *D sky130_fd_sc_hd__nand2_2
*CAP
1 *1182:B2 2.42846e-05
2 *1181:Y 2.42846e-05
3 *1182:B2 *179:39 2.75229e-05
*RES
1 *1181:Y *1182:B2 3.65 
*END

*D_NET *175 0.00041733
*CONN
*I *1183:B I *D sky130_fd_sc_hd__and2_2
*I *1182:X O *D sky130_fd_sc_hd__a22o_2
*CAP
1 *1183:B 0.000137408
2 *1182:X 0.000137408
3 *1183:B *1178:A1 5.42473e-05
4 *1183:B *1369:A 0
5 *1183:B *179:39 8.8266e-05
*RES
1 *1182:X *1183:B 9.63 
*END

*D_NET *176 0.000491594
*CONN
*I *1186:B I *D sky130_fd_sc_hd__and3_2
*I *1184:X O *D sky130_fd_sc_hd__a22o_2
*CAP
1 *1186:B 0.000199056
2 *1184:X 0.000199056
3 *1186:B *1186:A 1.7386e-05
4 *1186:B *355:16 7.60965e-05
*RES
1 *1184:X *1186:B 5.72 
*END

*D_NET *177 0.000355737
*CONN
*I *1186:C I *D sky130_fd_sc_hd__and3_2
*I *1185:Y O *D sky130_fd_sc_hd__nand2_2
*CAP
1 *1186:C 8.59761e-05
2 *1185:Y 8.59761e-05
3 *1186:C *1186:A 9.54399e-05
4 *1186:C *1309:CLK 2.75145e-05
5 *1186:C *355:8 8.73389e-06
6 *1309:D *1186:C 5.20968e-05
*RES
1 *1185:Y *1186:C 9.12 
*END

*D_NET *178 0.00123381
*CONN
*I *1188:B1 I *D sky130_fd_sc_hd__a211o_2
*I *1198:B1 I *D sky130_fd_sc_hd__a211o_2
*I *1187:X O *D sky130_fd_sc_hd__or2_2
*CAP
1 *1188:B1 3.59986e-05
2 *1198:B1 2.89238e-05
3 *1187:X 0.000324334
4 *178:10 0.000389257
5 *1198:B1 *1188:A1 1.33293e-05
6 *1198:B1 *1198:A1 4.87465e-06
7 *178:10 *1188:C1 0.000112825
8 *178:10 *344:14 5.53249e-06
9 *178:10 *368:93 0
10 *178:10 *368:108 0
11 *1098:B *1188:B1 7.14699e-05
12 *1098:B *1198:B1 9.56256e-05
13 *1184:B2 *178:10 1.34361e-05
14 *1198:C1 *1188:B1 8.50473e-05
15 *1198:C1 *1198:B1 5.3161e-05
16 *116:29 *178:10 0
*RES
1 *1187:X *178:10 11.06 
2 *178:10 *1198:B1 2.755 
3 *178:10 *1188:B1 2.755 
*END

*D_NET *179 0.0100266
*CONN
*I *1189:C I *D sky130_fd_sc_hd__nor3_2
*I *1196:A2 I *D sky130_fd_sc_hd__o21bai_2
*I *1197:A3 I *D sky130_fd_sc_hd__o311a_2
*I *1192:A2 I *D sky130_fd_sc_hd__o21bai_2
*I *1195:A3 I *D sky130_fd_sc_hd__o311a_2
*I *1194:A2 I *D sky130_fd_sc_hd__o21bai_2
*I *1193:A3 I *D sky130_fd_sc_hd__o311a_2
*I *1190:D I *D sky130_fd_sc_hd__or4_2
*I *1188:X O *D sky130_fd_sc_hd__a211o_2
*CAP
1 *1189:C 0
2 *1196:A2 0.000100223
3 *1197:A3 5.92781e-05
4 *1192:A2 0
5 *1195:A3 0
6 *1194:A2 9.32483e-05
7 *1193:A3 0
8 *1190:D 0.000123908
9 *1188:X 7.22987e-05
10 *179:89 0.000587451
11 *179:60 0.000343813
12 *179:45 0.000426078
13 *179:39 0.00106679
14 *179:27 0.00134869
15 *179:25 0.000295097
16 *179:8 0.000461844
17 *1190:D *1190:A 0.000162311
18 *1190:D *1190:C 3.99834e-05
19 *1190:D *1191:B1 5.98073e-05
20 *1194:A2 *1195:B1 9.77816e-05
21 *1194:A2 *1195:C1 4.82919e-05
22 *1194:A2 *267:31 4.70919e-05
23 *1196:A2 *1197:B1 2.60908e-05
24 *1196:A2 *291:12 0.000201407
25 *1197:A3 *269:57 0.000124895
26 *179:25 *1190:A 0
27 *179:25 *1191:A2 0.000175848
28 *179:25 *1191:B1 3.99039e-05
29 *179:39 *1189:A 4.82919e-05
30 *179:39 *1189:B 8.82473e-05
31 *179:39 *1191:A2 1.34503e-05
32 *179:39 *246:38 0.000223907
33 *179:39 *354:20 0.000268086
34 *179:45 *1193:A1 0.000205384
35 *179:45 *1193:B1 0.000343914
36 *179:60 *1193:B1 9.50342e-06
37 *179:60 *1207:C1 0
38 *179:60 *1449:A 4.48373e-06
39 *179:60 *267:31 5.53249e-06
40 *179:60 *269:97 0.000288203
41 *179:89 *1201:A2 0.000239729
42 *179:89 *1300:CLK 0.000143266
43 *179:89 *291:12 0.00040392
44 *179:89 *354:75 0
45 *1097:A *1190:D 0.000124895
46 *1181:B *179:39 2.49909e-05
47 *1182:A2 *179:39 1.4498e-05
48 *1182:B1 *179:39 1.17309e-05
49 *1182:B2 *179:39 2.75229e-05
50 *1183:B *179:39 8.8266e-05
51 *1185:B *179:8 6.28765e-05
52 *1185:B *179:25 2.59981e-05
53 *1193:A2 *179:39 4.66108e-05
54 *1193:A2 *179:45 0
55 *1193:A2 *179:60 0
56 *1195:A2 *1194:A2 3.26889e-05
57 *1196:A1 *1196:A2 0
58 *1313:D *1196:A2 0.000113797
59 *119:10 *179:89 5.00786e-05
60 *119:50 *179:25 0.000279856
61 *119:50 *179:89 0
62 *120:8 *179:8 0
63 *158:16 *1190:D 0.000445648
64 *172:21 *1194:A2 0.000312958
65 *173:38 *179:39 7.61024e-05
*RES
1 *1188:X *179:8 4.98 
2 *179:8 *1190:D 8.895 
3 *179:8 *179:25 8.93 
4 *179:25 *179:27 0.45 
5 *179:27 *179:39 16.23 
6 *179:39 *179:45 7.325 
7 *179:45 *1193:A3 3.6 
8 *179:45 *179:60 6.74 
9 *179:60 *1194:A2 5.185 
10 *179:60 *1195:A3 1.6 
11 *179:39 *1192:A2 1.6 
12 *179:27 *179:89 12.35 
13 *179:89 *1197:A3 4.74 
14 *179:89 *1196:A2 6 
15 *179:25 *1189:C 1.6 
*END

*D_NET *180 0.000611091
*CONN
*I *1191:A2 I *D sky130_fd_sc_hd__o211a_2
*I *1189:Y O *D sky130_fd_sc_hd__nor3_2
*CAP
1 *1191:A2 0.000200316
2 *1189:Y 0.000200316
3 *1191:A2 *1189:B 1.16578e-05
4 *1191:A2 *1190:A 0
5 *1191:A2 *1191:B1 9.50342e-06
6 *179:25 *1191:A2 0.000175848
7 *179:39 *1191:A2 1.34503e-05
*RES
1 *1189:Y *1191:A2 11.325 
*END

*D_NET *181 0.000647024
*CONN
*I *1191:B1 I *D sky130_fd_sc_hd__o211a_2
*I *1190:X O *D sky130_fd_sc_hd__or4_2
*CAP
1 *1191:B1 0.000242063
2 *1190:X 0.000242063
3 *1191:B1 *1190:A 4.66742e-05
4 *1097:A *1191:B1 7.00889e-06
5 *1190:D *1191:B1 5.98073e-05
6 *1191:A2 *1191:B1 9.50342e-06
7 *179:25 *1191:B1 3.99039e-05
*RES
1 *1190:X *1191:B1 10.755 
*END

*D_NET *182 0.000688568
*CONN
*I *1193:B1 I *D sky130_fd_sc_hd__o311a_2
*I *1192:Y O *D sky130_fd_sc_hd__o21bai_2
*CAP
1 *1193:B1 9.66065e-05
2 *1192:Y 9.66065e-05
3 *1193:A2 *1193:B1 0.000141938
4 *179:45 *1193:B1 0.000343914
5 *179:60 *1193:B1 9.50342e-06
*RES
1 *1192:Y *1193:B1 11.13 
*END

*D_NET *183 0.0004603
*CONN
*I *1195:B1 I *D sky130_fd_sc_hd__o311a_2
*I *1194:Y O *D sky130_fd_sc_hd__o21bai_2
*CAP
1 *1195:B1 5.80875e-05
2 *1194:Y 5.80875e-05
3 *1195:B1 *1195:C1 4.82919e-05
4 *1195:B1 *267:31 0.000198051
5 *1194:A2 *1195:B1 9.77816e-05
*RES
1 *1194:Y *1195:B1 5.39 
*END

*D_NET *184 0.000648583
*CONN
*I *1197:B1 I *D sky130_fd_sc_hd__o311a_2
*I *1196:Y O *D sky130_fd_sc_hd__o21bai_2
*CAP
1 *1197:B1 9.71442e-05
2 *1196:Y 9.71442e-05
3 *1197:B1 *1299:CLK 5.74791e-05
4 *1197:B1 *291:12 4.82919e-05
5 *1196:A1 *1197:B1 7.55313e-05
6 *1196:A2 *1197:B1 2.60908e-05
7 *1313:D *1197:B1 9.14049e-05
8 *158:43 *1197:B1 0.000155497
*RES
1 *1196:Y *1197:B1 10.32 
*END

*D_NET *185 0.0101045
*CONN
*I *1206:A2 I *D sky130_fd_sc_hd__o21bai_2
*I *1207:A3 I *D sky130_fd_sc_hd__o311a_2
*I *1204:A2 I *D sky130_fd_sc_hd__o21bai_2
*I *1205:A3 I *D sky130_fd_sc_hd__o311a_2
*I *1199:C I *D sky130_fd_sc_hd__nor3_2
*I *1200:D I *D sky130_fd_sc_hd__or4_2
*I *1202:A2 I *D sky130_fd_sc_hd__o21bai_2
*I *1203:A3 I *D sky130_fd_sc_hd__o311a_2
*I *1198:X O *D sky130_fd_sc_hd__a211o_2
*CAP
1 *1206:A2 3.92409e-05
2 *1207:A3 2.08101e-05
3 *1204:A2 3.59027e-05
4 *1205:A3 0.000109072
5 *1199:C 0.000106128
6 *1200:D 0
7 *1202:A2 4.98755e-05
8 *1203:A3 0.000193699
9 *1198:X 0.000150271
10 *185:66 0.00119469
11 *185:62 0.0013632
12 *185:58 0.000512206
13 *185:47 0.000393325
14 *185:38 0.000649379
15 *185:12 0.0011376
16 *185:8 0.00158677
17 *1199:C *247:98 7.35813e-05
18 *1202:A2 *1202:B1_N 0
19 *1203:A3 *1203:B1 0.000113797
20 *1203:A3 *1203:C1 2.59981e-05
21 *1203:A3 *246:56 4.82863e-05
22 *1203:A3 *266:81 1.73877e-05
23 *1204:A2 *1205:B1 0
24 *1205:A3 *1205:A1 4.70919e-05
25 *1205:A3 *1205:B1 0
26 *1205:A3 *1205:C1 7.60965e-05
27 *1206:A2 *1200:C 4.13171e-05
28 *1206:A2 *1206:B1_N 0
29 *1206:A2 *267:31 0
30 *185:8 *1190:B 0
31 *185:8 *271:45 8.53113e-06
32 *185:8 *271:107 0.000245893
33 *185:12 *246:50 0.000156355
34 *185:12 *271:107 4.66108e-05
35 *185:38 *1190:B 0
36 *185:38 *239:179 0
37 *185:38 *246:12 0
38 *185:38 *246:38 0
39 *185:38 *246:46 0
40 *185:38 *271:107 2.07184e-05
41 *185:38 *353:34 0
42 *185:38 *353:73 0
43 *185:38 *354:10 0
44 *185:38 *354:20 0
45 *185:47 *1200:C 9.24049e-05
46 *185:47 *239:179 0
47 *185:47 *353:73 0
48 *185:58 *1200:C 0.000176629
49 *185:58 *239:179 0
50 *185:58 *267:31 0
51 *185:62 *1207:B1 2.30292e-05
52 *185:66 *1207:B1 3.00381e-05
53 *185:66 *1207:C1 0.000155661
54 *185:66 *1387:A 9.46111e-06
55 *1169:A2 *185:66 3.80606e-05
56 *1177:A *185:12 0.000118294
57 *1205:A2 *1205:A3 0.000237243
58 *1207:A2 *185:62 0.000428764
59 *1307:D *185:12 4.8061e-05
60 *1307:D *185:38 0
61 *1312:D *185:66 3.51254e-06
62 *1316:D *1204:A2 0
63 *120:8 *185:8 0
64 *159:10 *1203:A3 4.99619e-05
65 *159:38 *1204:A2 3.26084e-05
66 *159:38 *1205:A3 3.18219e-05
67 *159:59 *185:66 4.92993e-05
68 *173:12 *185:12 0.000115779
*RES
1 *1198:X *185:8 6.51 
2 *185:8 *185:12 13.145 
3 *185:12 *1203:A3 9.08 
4 *185:12 *1202:A2 2.665 
5 *185:8 *185:38 8.52 
6 *185:38 *1200:D 3.6 
7 *185:38 *185:47 2.4 
8 *185:47 *1199:C 5.43 
9 *185:47 *185:58 3.675 
10 *185:58 *185:62 6.245 
11 *185:62 *185:66 14.18 
12 *185:66 *1205:A3 6.9 
13 *185:66 *1204:A2 4.47 
14 *185:62 *1207:A3 1.96 
15 *185:58 *1206:A2 4.47 
*END

*D_NET *186 0.000730129
*CONN
*I *1201:A2 I *D sky130_fd_sc_hd__o211a_2
*I *1199:Y O *D sky130_fd_sc_hd__nor3_2
*CAP
1 *1201:A2 0.000132322
2 *1199:Y 0.000132322
3 *1201:A2 *247:98 8.49205e-05
4 *119:10 *1201:A2 0.000140836
5 *179:89 *1201:A2 0.000239729
*RES
1 *1199:Y *1201:A2 10.905 
*END

*D_NET *187 0.000438341
*CONN
*I *1201:B1 I *D sky130_fd_sc_hd__o211a_2
*I *1200:X O *D sky130_fd_sc_hd__or4_2
*CAP
1 *1201:B1 0.000167876
2 *1200:X 0.000167876
3 *1201:B1 *354:64 1.85674e-05
4 *1201:B1 *354:73 8.40213e-05
*RES
1 *1200:X *1201:B1 5.75 
*END

*D_NET *188 0.000452546
*CONN
*I *1203:B1 I *D sky130_fd_sc_hd__o311a_2
*I *1202:Y O *D sky130_fd_sc_hd__o21bai_2
*CAP
1 *1203:B1 7.78463e-05
2 *1202:Y 7.78463e-05
3 *1203:B1 *1193:A1 5.20968e-05
4 *1203:B1 *246:56 4.82863e-05
5 *1203:B1 *266:81 5.53249e-06
6 *1203:B1 *266:90 3.05295e-05
7 *1203:A2 *1203:B1 4.66108e-05
8 *1203:A3 *1203:B1 0.000113797
*RES
1 *1202:Y *1203:B1 9.285 
*END

*D_NET *189 0.000476478
*CONN
*I *1205:B1 I *D sky130_fd_sc_hd__o311a_2
*I *1204:Y O *D sky130_fd_sc_hd__o21bai_2
*CAP
1 *1205:B1 0.000191064
2 *1204:Y 0.000191064
3 *1205:B1 *1204:B1_N 4.82919e-05
4 *1169:A2 *1205:B1 4.60584e-05
5 *1204:A2 *1205:B1 0
6 *1205:A3 *1205:B1 0
7 *1316:D *1205:B1 0
8 *159:38 *1205:B1 0
*RES
1 *1204:Y *1205:B1 10.485 
*END

*D_NET *190 0.000681404
*CONN
*I *1207:B1 I *D sky130_fd_sc_hd__o311a_2
*I *1206:Y O *D sky130_fd_sc_hd__o21bai_2
*CAP
1 *1207:B1 0.00010222
2 *1206:Y 0.00010222
3 *1207:B1 *267:42 0.000146674
4 *1207:A2 *1207:B1 0.000277223
5 *185:62 *1207:B1 2.30292e-05
6 *185:66 *1207:B1 3.00381e-05
*RES
1 *1206:Y *1207:B1 6.77 
*END

*D_NET *191 0.000946265
*CONN
*I *1217:A1 I *D sky130_fd_sc_hd__a21boi_2
*I *1212:A I *D sky130_fd_sc_hd__or4_2
*I *1208:Y O *D sky130_fd_sc_hd__nand2b_2
*CAP
1 *1217:A1 0.000113889
2 *1212:A 9.11932e-05
3 *1208:Y 0.000205082
4 *1212:A *1212:C 0.000203429
5 *1212:A *195:20 3.20268e-05
6 *1217:A1 *1208:A_N 1.747e-05
7 *1217:A1 *1208:B 0.000155351
8 *1402:A *1217:A1 0.000127823
*RES
1 *1208:Y *1212:A 5.39 
2 *1208:Y *1217:A1 10.62 
*END

*D_NET *192 0.00110486
*CONN
*I *1212:B I *D sky130_fd_sc_hd__or4_2
*I *1209:X O *D sky130_fd_sc_hd__or4b_2
*CAP
1 *1212:B 0.00048394
2 *1209:X 0.00048394
3 *1212:B *1208:B 0
4 *1212:B *1209:A 2.937e-05
5 *1212:B *1212:D 3.6227e-05
6 *1212:B *1231:A 0
7 *1212:B *239:35 7.13843e-05
*RES
1 *1209:X *1212:B 15.195 
*END

*D_NET *193 0.00160841
*CONN
*I *1212:C I *D sky130_fd_sc_hd__or4_2
*I *1210:X O *D sky130_fd_sc_hd__or3_2
*CAP
1 *1212:C 0.000624655
2 *1210:X 0.000624655
3 *1212:C *1208:A_N 2.10841e-05
4 *1212:C *1319:D 2.59285e-05
5 *1212:C *195:20 1.16854e-05
6 *1212:C *343:6 1.34618e-05
7 *1212:A *1212:C 0.000203429
8 *1402:A *1212:C 8.35157e-05
*RES
1 *1210:X *1212:C 16.725 
*END

*D_NET *194 0.000964496
*CONN
*I *1212:D I *D sky130_fd_sc_hd__or4_2
*I *1211:X O *D sky130_fd_sc_hd__or4_2
*CAP
1 *1212:D 0.000272792
2 *1211:X 0.000272792
3 *1212:D *1211:D 7.29219e-05
4 *1212:D *240:24 0.000309765
5 *1212:B *1212:D 3.6227e-05
*RES
1 *1211:X *1212:D 11.7 
*END

*D_NET *195 0.00530943
*CONN
*I *1250:A2 I *D sky130_fd_sc_hd__o21bai_2
*I *1264:B I *D sky130_fd_sc_hd__or2_2
*I *1251:A2 I *D sky130_fd_sc_hd__o21ba_2
*I *1213:B I *D sky130_fd_sc_hd__nand2_2
*I *1212:X O *D sky130_fd_sc_hd__or4_2
*CAP
1 *1250:A2 0
2 *1264:B 0.000187592
3 *1251:A2 0
4 *1213:B 0.000177789
5 *1212:X 0.00184426
6 *195:50 0.000295548
7 *195:39 0.000288609
8 *195:20 0.00220271
9 *1213:B *1213:A 4.18603e-06
10 *1213:B *196:51 0
11 *1213:B *262:33 1.26305e-05
12 *195:20 *1211:D 3.97719e-05
13 *195:20 *310:12 0.000102557
14 *195:20 *383:21 8.30853e-06
15 *195:39 *1213:A 0
16 *195:39 *262:33 3.86648e-06
17 *195:39 *273:78 0
18 *195:39 *273:97 0
19 *195:50 *1251:B1_N 0
20 *195:50 *273:97 0
21 *1212:A *195:20 3.20268e-05
22 *1212:C *195:20 1.16854e-05
23 *105:10 *195:39 1.49649e-05
24 *105:10 *195:50 7.34247e-05
25 *105:21 *195:50 9.50342e-06
*RES
1 *1212:X *195:20 10.3098 
2 *195:20 *1213:B 4.6327 
3 *195:20 *195:39 3.09463 
4 *195:39 *1251:A2 3.6 
5 *195:39 *195:50 3.89 
6 *195:50 *1264:B 4.135 
7 *195:50 *1250:A2 1.6 
*END

*D_NET *196 0.00559929
*CONN
*I *1261:A2 I *D sky130_fd_sc_hd__a31o_2
*I *1263:A2 I *D sky130_fd_sc_hd__a31o_2
*I *1260:B1 I *D sky130_fd_sc_hd__o211a_2
*I *1242:B1 I *D sky130_fd_sc_hd__a211o_2
*I *1240:B I *D sky130_fd_sc_hd__or3_2
*I *1214:B I *D sky130_fd_sc_hd__nor2_2
*I *1213:Y O *D sky130_fd_sc_hd__nand2_2
*CAP
1 *1261:A2 2.30278e-05
2 *1263:A2 3.73502e-05
3 *1260:B1 0.0001684
4 *1242:B1 3.97996e-05
5 *1240:B 0
6 *1214:B 0.000247264
7 *1213:Y 4.53158e-05
8 *196:55 0.00031592
9 *196:51 0.000503605
10 *196:18 0.000774375
11 *196:10 0.000672059
12 *196:8 0.000520872
13 *1214:B *1172:A 0
14 *1214:B *1241:B1_N 0.000164874
15 *1214:B *1328:CLK 0
16 *1214:B *241:24 0.000212451
17 *1242:B1 *1240:C 1.34594e-05
18 *1242:B1 *1242:A1 8.18551e-05
19 *1242:B1 *1242:A2 2.30292e-05
20 *1242:B1 *273:65 0.000194024
21 *1260:B1 *1262:B1_N 0
22 *1260:B1 *1335:CLK 0
23 *1260:B1 *225:14 0
24 *1260:B1 *265:41 9.50342e-06
25 *1261:A2 *1263:A1 9.51207e-06
26 *1261:A2 *1263:A3 0
27 *1263:A2 *1265:A1 5.53249e-06
28 *1263:A2 *1335:CLK 0
29 *196:18 *1240:C 0
30 *196:18 *1241:B1_N 4.82863e-05
31 *196:18 *1243:B1_N 0.000360618
32 *196:18 *241:20 3.30388e-05
33 *196:18 *310:12 0
34 *196:51 *1213:A 9.29751e-06
35 *196:51 *1261:B1 2.75229e-05
36 *196:51 *1263:A1 9.93223e-06
37 *196:51 *1265:A2 8.63479e-05
38 *196:51 *1424:A 6.28843e-05
39 *196:51 *262:10 0.000162332
40 *196:51 *262:33 1.15399e-05
41 *196:51 *387:10 8.08153e-06
42 *196:51 *387:12 1.14559e-05
43 *196:51 *387:51 8.38111e-05
44 *196:55 *1262:B1_N 4.99619e-05
45 *196:55 *1263:A1 1.30169e-05
46 *196:55 *1263:A3 0.000172328
47 *1078:A *196:51 0.000118504
48 *1083:B1 *196:51 2.42236e-05
49 *1213:B *196:51 0
50 *1263:B1 *1263:A2 2.24336e-05
51 *1328:D *196:18 9.33933e-05
52 *103:10 *196:8 5.05521e-05
53 *103:10 *196:51 7.74981e-05
*RES
1 *1213:Y *196:8 4.395 
2 *196:8 *196:10 1.38 
3 *196:10 *196:18 10.52 
4 *196:18 *1214:B 6.13 
5 *196:18 *1240:B 1.6 
6 *196:10 *1242:B1 5.445 
7 *196:8 *196:51 10.9025 
8 *196:51 *196:55 4.5575 
9 *196:55 *1260:B1 6.195 
10 *196:55 *1263:A2 4.47 
11 *196:51 *1261:A2 2.1025 
*END

*D_NET *197 0.00320011
*CONN
*I *1248:C1 I *D sky130_fd_sc_hd__o211a_2
*I *1363:A I *D sky130_fd_sc_hd__clkdlybuf4s25_1
*I *1214:Y O *D sky130_fd_sc_hd__nor2_2
*CAP
1 *1248:C1 0.000644329
2 *1363:A 6.60874e-05
3 *1214:Y 0.000175837
4 *197:8 0.000886254
5 *1248:C1 *1241:A1 0.000124471
6 *1248:C1 *1241:A2 0.00063514
7 *1248:C1 *1241:B1_N 0.0001249
8 *1248:C1 *382:10 1.83756e-05
9 *1363:A *1239:D 3.1937e-05
10 *1363:A *212:8 0.000209498
11 *1363:A *263:113 5.51158e-05
12 *1363:A *382:10 0
13 *197:8 *1238:A_N 0.00011686
14 *197:8 *1238:B 3.77199e-05
15 *197:8 *1241:B1_N 0
16 *197:8 *1326:CLK 0
17 *197:8 *212:8 2.14129e-05
18 *197:8 *263:113 5.21714e-05
19 *1326:D *197:8 0
*RES
1 *1214:Y *197:8 7.53 
2 *197:8 *1363:A 6 
3 *197:8 *1248:C1 16.71 
*END

*D_NET *198 0.000195231
*CONN
*I *1217:A2 I *D sky130_fd_sc_hd__a21boi_2
*I *1216:Y O *D sky130_fd_sc_hd__nand2b_2
*CAP
1 *1217:A2 4.31546e-05
2 *1216:Y 4.31546e-05
3 *1217:A2 *1208:A_N 6.47357e-05
4 *1217:A2 *1208:B 4.41857e-05
*RES
1 *1216:Y *1217:A2 8.58 
*END

*D_NET *199 0.000312666
*CONN
*I *1428:A I *D sky130_fd_sc_hd__dlygate4sd3_1
*I *1218:Y O *D sky130_fd_sc_hd__nand3_2
*CAP
1 *1428:A 0.000131352
2 *1218:Y 0.000131352
3 *1428:A *1218:C 0
4 *1428:A *1220:C 0
5 *1428:A *376:16 4.99619e-05
*RES
1 *1218:Y *1428:A 9.285 
*END

*D_NET *200 0.00209919
*CONN
*I *1220:C I *D sky130_fd_sc_hd__and3_2
*I *1219:X O *D sky130_fd_sc_hd__a21o_2
*CAP
1 *1220:C 0.00043962
2 *1219:X 0.00043962
3 *1220:C *1215:A_N 8.88761e-05
4 *1220:C *1215:B 0
5 *1220:C *1218:A 0.000201503
6 *1220:C *1219:B1 0
7 *1220:C *1220:B 0.00044586
8 *1220:C *1318:CLK 1.1561e-05
9 *1220:C *375:39 0.000201503
10 *1220:C *377:28 0
11 *1320:D *1220:C 0.000270647
12 *1428:A *1220:C 0
*RES
1 *1219:X *1220:C 18.435 
*END

*D_NET *201 0.0049693
*CONN
*I *1223:A_N I *D sky130_fd_sc_hd__and3b_2
*I *1228:A2 I *D sky130_fd_sc_hd__a21o_2
*I *1231:D I *D sky130_fd_sc_hd__and4_2
*I *1227:C I *D sky130_fd_sc_hd__and3_2
*I *1225:B I *D sky130_fd_sc_hd__or2_2
*I *1224:B I *D sky130_fd_sc_hd__nand2_2
*I *1221:X O *D sky130_fd_sc_hd__and4_2
*CAP
1 *1223:A_N 0
2 *1228:A2 0
3 *1231:D 0.000249502
4 *1227:C 0
5 *1225:B 0.000193229
6 *1224:B 0.000113379
7 *1221:X 0.000323236
8 *201:30 0.000603674
9 *201:28 0.000883098
10 *201:14 0.000512254
11 *201:12 0.00049896
12 *1224:B *1224:A 5.84828e-05
13 *1225:B *1226:B 0
14 *1225:B *1421:A 4.74304e-05
15 *1225:B *240:51 0.00011686
16 *1225:B *263:39 0
17 *1225:B *378:10 7.89767e-05
18 *1231:D *1230:A 3.86529e-05
19 *1231:D *1230:B 0.000208484
20 *1231:D *1231:B 1.32017e-05
21 *1231:D *1231:C 5.83121e-06
22 *1231:D *208:6 9.60582e-07
23 *1231:D *240:73 8.35106e-05
24 *1231:D *263:29 0
25 *1231:D *263:33 0
26 *1231:D *378:65 1.75875e-05
27 *201:12 *1228:B1 0
28 *201:14 *1228:B1 0.000124473
29 *201:14 *263:61 0.000131543
30 *201:28 *1228:A1 4.77757e-05
31 *201:28 *1228:B1 1.53053e-05
32 *201:28 *1229:A_N 0.000157256
33 *201:28 *1230:B 3.09164e-05
34 *201:28 *263:39 0
35 *201:28 *378:52 4.70326e-05
36 *201:30 *1421:A 8.65961e-05
37 *201:30 *240:73 0.000215553
38 *1324:D *1231:D 6.55406e-05
*RES
1 *1221:X *201:12 9.32 
2 *201:12 *201:14 3.21 
3 *201:14 *201:28 10.15 
4 *201:28 *201:30 5.28 
5 *201:30 *1224:B 3.445 
6 *201:30 *1225:B 9.785 
7 *201:28 *1227:C 1.6 
8 *201:28 *1231:D 11.225 
9 *201:14 *1228:A2 1.6 
10 *201:12 *1223:A_N 1.6 
*END

*D_NET *202 0.000830651
*CONN
*I *1223:B I *D sky130_fd_sc_hd__and3b_2
*I *1222:X O *D sky130_fd_sc_hd__a31o_2
*CAP
1 *1223:B 0.00031443
2 *1222:X 0.00031443
3 *1223:B *1209:D_N 4.82919e-05
4 *1223:B *1221:C 0
5 *1223:B *1228:B1 0
6 *1321:D *1223:B 0.000153499
*RES
1 *1222:X *1223:B 12.855 
*END

*D_NET *203 0.000510516
*CONN
*I *1226:B I *D sky130_fd_sc_hd__and3_2
*I *1224:Y O *D sky130_fd_sc_hd__nand2_2
*CAP
1 *1226:B 0.000214248
2 *1224:Y 0.000214248
3 *1226:B *1226:C 4.9253e-06
4 *1225:B *1226:B 0
5 *1322:D *1226:B 7.70938e-05
*RES
1 *1224:Y *1226:B 10.815 
*END

*D_NET *204 0.000202172
*CONN
*I *1226:C I *D sky130_fd_sc_hd__and3_2
*I *1225:X O *D sky130_fd_sc_hd__or2_2
*CAP
1 *1226:C 8.08965e-05
2 *1225:X 8.08965e-05
3 *1226:C *1226:A 3.54536e-05
4 *1226:B *1226:C 4.9253e-06
*RES
1 *1225:X *1226:C 4.7 
*END

*D_NET *205 0.00153654
*CONN
*I *1230:B I *D sky130_fd_sc_hd__or2_2
*I *1229:A_N I *D sky130_fd_sc_hd__and3b_2
*I *1227:X O *D sky130_fd_sc_hd__and3_2
*CAP
1 *1230:B 0.000158049
2 *1229:A_N 0.000174878
3 *1227:X 0
4 *205:6 0.000332927
5 *1229:A_N *1228:A1 0.00012657
6 *1229:A_N *263:33 0
7 *1229:A_N *263:61 0.000124895
8 *1230:B *1227:B 0.00011246
9 *1230:B *1230:A 4.77757e-05
10 *1230:B *263:33 0
11 *1230:B *378:65 0
12 *1231:D *1230:B 0.000208484
13 *1323:D *1229:A_N 6.23288e-05
14 *201:28 *1229:A_N 0.000157256
15 *201:28 *1230:B 3.09164e-05
*RES
1 *1227:X *205:6 3.6 
2 *205:6 *1229:A_N 8.415 
3 *205:6 *1230:B 7.41 
*END

*D_NET *206 0.000602168
*CONN
*I *1229:B I *D sky130_fd_sc_hd__and3b_2
*I *1228:X O *D sky130_fd_sc_hd__a21o_2
*CAP
1 *1229:B 0.000187484
2 *1228:X 0.000187484
3 *1229:B *263:61 6.6564e-05
4 *1323:D *1229:B 0.000160635
*RES
1 *1228:X *1229:B 5.72 
*END

*D_NET *207 0.000325412
*CONN
*I *1232:C I *D sky130_fd_sc_hd__and3b_2
*I *1230:X O *D sky130_fd_sc_hd__or2_2
*CAP
1 *1232:C 0.000133396
2 *1230:X 0.000133396
3 *1232:C *1230:A 0
4 *1232:C *263:29 2.85821e-05
5 *1324:D *1232:C 3.00381e-05
*RES
1 *1230:X *1232:C 5.4875 
*END

*D_NET *208 0.00451819
*CONN
*I *1234:B I *D sky130_fd_sc_hd__nand2_2
*I *1232:A_N I *D sky130_fd_sc_hd__and3b_2
*I *1239:D I *D sky130_fd_sc_hd__and4_2
*I *1237:C I *D sky130_fd_sc_hd__and3_2
*I *1236:A2 I *D sky130_fd_sc_hd__a21o_2
*I *1233:B I *D sky130_fd_sc_hd__or2_2
*I *1231:X O *D sky130_fd_sc_hd__and4_2
*CAP
1 *1234:B 0
2 *1232:A_N 0.000166596
3 *1239:D 0.000471334
4 *1237:C 1.45466e-05
5 *1236:A2 5.9817e-05
6 *1233:B 0
7 *1231:X 0.000347745
8 *208:54 0.000241688
9 *208:23 7.43636e-05
10 *208:21 0.000635741
11 *208:12 0.000486338
12 *208:6 0.000744766
13 *1232:A_N *240:47 0.000137578
14 *1236:A2 *1236:A1 0.00015856
15 *1237:C *1236:A1 4.77807e-05
16 *1237:C *1237:B 3.62258e-06
17 *1239:D *1236:B1 3.64998e-06
18 *1239:D *1239:B 0.000421206
19 *1239:D *1239:C 2.86975e-05
20 *1239:D *212:8 6.13089e-05
21 *1239:D *263:113 5.05521e-05
22 *1239:D *382:10 0
23 *208:6 *263:23 3.41911e-05
24 *208:12 *1234:A 7.35729e-05
25 *208:12 *1235:B 9.84332e-05
26 *208:12 *1235:C 4.9253e-06
27 *208:12 *263:23 8.58339e-06
28 *208:21 *212:8 1.64067e-05
29 *208:54 *1234:A 4.66108e-05
30 *208:54 *263:23 4.66826e-05
31 *1231:D *208:6 9.60582e-07
32 *1363:A *1239:D 3.1937e-05
*RES
1 *1231:X *208:6 5.5 
2 *208:6 *208:12 7.34 
3 *208:12 *1233:B 3.6 
4 *208:12 *208:21 2.91 
5 *208:21 *208:23 2 
6 *208:23 *1236:A2 3.085 
7 *208:23 *1237:C 2.05 
8 *208:21 *1239:D 12.855 
9 *208:6 *208:54 1.665 
10 *208:54 *1232:A_N 8.375 
11 *208:54 *1234:B 1.6 
*END

*D_NET *209 0.00050516
*CONN
*I *1235:B I *D sky130_fd_sc_hd__and3_2
*I *1233:X O *D sky130_fd_sc_hd__or2_2
*CAP
1 *1235:B 0.000166699
2 *1233:X 0.000166699
3 *1325:D *1235:B 7.33283e-05
4 *208:12 *1235:B 9.84332e-05
*RES
1 *1233:X *1235:B 10.815 
*END

*D_NET *210 0.000222099
*CONN
*I *1235:C I *D sky130_fd_sc_hd__and3_2
*I *1234:Y O *D sky130_fd_sc_hd__nand2_2
*CAP
1 *1235:C 6.43265e-05
2 *1234:Y 6.43265e-05
3 *1235:C *1234:A 0
4 *1235:C *1235:A 5.4155e-06
5 *1235:C *263:12 5.30673e-05
6 *1235:C *263:23 3.00381e-05
7 *208:12 *1235:C 4.9253e-06
*RES
1 *1234:Y *1235:C 4.7 
*END

*D_NET *211 0.000983964
*CONN
*I *1238:C I *D sky130_fd_sc_hd__and3b_2
*I *1236:X O *D sky130_fd_sc_hd__a21o_2
*CAP
1 *1238:C 0.000408598
2 *1236:X 0.000408598
3 *1238:C *1236:B1 9.10613e-05
4 *1238:C *1238:A_N 0
5 *1238:C *1326:CLK 1.01661e-05
6 *1238:C *212:8 0
7 *1326:D *1238:C 6.55406e-05
*RES
1 *1236:X *1238:C 14.0775 
*END

*D_NET *212 0.00244657
*CONN
*I *1238:A_N I *D sky130_fd_sc_hd__and3b_2
*I *1241:A2 I *D sky130_fd_sc_hd__o21ba_2
*I *1237:X O *D sky130_fd_sc_hd__and3_2
*CAP
1 *1238:A_N 9.35581e-05
2 *1241:A2 0.000395834
3 *1237:X 0.000197885
4 *212:8 0.000687276
5 *1238:A_N *1238:B 1.1392e-05
6 *1238:C *1238:A_N 0
7 *1238:C *212:8 0
8 *1239:D *212:8 6.13089e-05
9 *1248:C1 *1241:A2 0.00063514
10 *1363:A *212:8 0.000209498
11 *197:8 *1238:A_N 0.00011686
12 *197:8 *212:8 2.14129e-05
13 *208:21 *212:8 1.64067e-05
*RES
1 *1237:X *212:8 8.04 
2 *212:8 *1241:A2 10.995 
3 *212:8 *1238:A_N 5.43 
*END

*D_NET *213 0.00735132
*CONN
*I *1244:A2 I *D sky130_fd_sc_hd__a21o_2
*I *1242:A2 I *D sky130_fd_sc_hd__a211o_2
*I *1240:C I *D sky130_fd_sc_hd__or3_2
*I *1245:C I *D sky130_fd_sc_hd__nand3_2
*I *1243:A2 I *D sky130_fd_sc_hd__o21ba_2
*I *1247:A3 I *D sky130_fd_sc_hd__a31o_2
*I *1239:X O *D sky130_fd_sc_hd__and4_2
*CAP
1 *1244:A2 3.65015e-05
2 *1242:A2 2.66239e-05
3 *1240:C 0.000415736
4 *1245:C 0
5 *1243:A2 0.00043747
6 *1247:A3 0
7 *1239:X 0.000261092
8 *213:45 0.00074263
9 *213:41 0.000488884
10 *213:32 0.000161802
11 *213:17 0.000591141
12 *213:6 0.000405073
13 *1240:C *1243:B1_N 0
14 *1240:C *273:14 0
15 *1240:C *273:65 0.000247487
16 *1242:A2 *1242:A1 3.4344e-05
17 *1242:A2 *273:65 1.85674e-05
18 *1243:A2 *1243:A1 8.64421e-05
19 *1243:A2 *1245:A 4.8111e-05
20 *1243:A2 *1245:B 2.75145e-05
21 *1243:A2 *1246:A 0.000161467
22 *1243:A2 *1246:C 0.000197924
23 *1243:A2 *1248:A2 2.8185e-05
24 *1244:A2 *1244:B1 2.15594e-05
25 *1244:A2 *241:73 0
26 *1244:A2 *372:38 2.92496e-05
27 *213:6 *1239:C 0.000197822
28 *213:6 *1248:B1 8.41384e-05
29 *213:17 *1248:A2 0.000118513
30 *213:17 *1248:B1 0.000148097
31 *213:17 *372:14 0.000346434
32 *213:17 *373:20 6.75113e-06
33 *213:32 *1248:A2 4.54719e-05
34 *213:32 *372:14 5.4003e-05
35 *213:41 *1244:B1 0.000211632
36 *213:41 *1248:A2 2.14129e-05
37 *213:41 *372:14 0.000252282
38 *213:41 *372:38 0.000262803
39 *213:41 *373:14 3.98869e-05
40 *213:45 *1242:A1 0.000515617
41 *213:45 *1246:B 0.000234181
42 *213:45 *310:12 4.77153e-05
43 *213:45 *372:38 3.66286e-05
44 *213:45 *372:40 0.000223632
45 *1242:B1 *1240:C 1.34594e-05
46 *1242:B1 *1242:A2 2.30292e-05
47 *196:18 *1240:C 0
*RES
1 *1239:X *213:6 6.19 
2 *213:6 *1247:A3 1.6 
3 *213:6 *213:17 6.815 
4 *213:17 *1243:A2 10.29 
5 *213:17 *213:32 0.615 
6 *213:32 *1245:C 3.6 
7 *213:32 *213:41 5.97 
8 *213:41 *213:45 9.35 
9 *213:45 *1240:C 12.485 
10 *213:45 *1242:A2 2.77 
11 *213:41 *1244:A2 4.215 
*END

*D_NET *214 0.00112715
*CONN
*I *1241:B1_N I *D sky130_fd_sc_hd__o21ba_2
*I *1240:X O *D sky130_fd_sc_hd__or3_2
*CAP
1 *1241:B1_N 0.000345104
2 *1240:X 0.000345104
3 *1241:B1_N *1238:B 0
4 *1241:B1_N *1240:A 5.30673e-05
5 *1241:B1_N *1243:B1_N 0
6 *1241:B1_N *241:24 4.58166e-05
7 *1241:B1_N *263:113 0
8 *1214:B *1241:B1_N 0.000164874
9 *1248:C1 *1241:B1_N 0.0001249
10 *1327:D *1241:B1_N 0
11 *1328:D *1241:B1_N 0
12 *196:18 *1241:B1_N 4.82863e-05
13 *197:8 *1241:B1_N 0
*RES
1 *1240:X *1241:B1_N 14.1 
*END

*D_NET *215 0.00106014
*CONN
*I *1243:B1_N I *D sky130_fd_sc_hd__o21ba_2
*I *1242:X O *D sky130_fd_sc_hd__a211o_2
*CAP
1 *1243:B1_N 0.000311714
2 *1242:X 0.000311714
3 *1243:B1_N *1246:A 7.60965e-05
4 *1240:C *1243:B1_N 0
5 *1241:B1_N *1243:B1_N 0
6 *1328:D *1243:B1_N 0
7 *196:18 *1243:B1_N 0.000360618
*RES
1 *1242:X *1243:B1_N 13.8 
*END

*D_NET *216 0.00129892
*CONN
*I *1246:B I *D sky130_fd_sc_hd__and3_2
*I *1244:X O *D sky130_fd_sc_hd__a21o_2
*CAP
1 *1246:B 0.000375669
2 *1244:X 0.000375669
3 *1246:B *310:12 0.000237707
4 *1329:D *1246:B 7.56981e-05
5 *213:45 *1246:B 0.000234181
*RES
1 *1244:X *1246:B 14.325 
*END

*D_NET *217 0.000914274
*CONN
*I *1248:A2 I *D sky130_fd_sc_hd__o211a_2
*I *1246:C I *D sky130_fd_sc_hd__and3_2
*I *1245:Y O *D sky130_fd_sc_hd__nand3_2
*CAP
1 *1248:A2 0.000101998
2 *1246:C 4.15803e-05
3 *1245:Y 0.000143579
4 *1246:C *1245:A 9.47017e-05
5 *1248:A2 *1245:B 1.08758e-05
6 *1248:A2 *1248:B1 9.50342e-06
7 *1248:A2 *373:14 2.78732e-05
8 *1248:A2 *373:20 7.26551e-05
9 *1243:A2 *1246:C 0.000197924
10 *1243:A2 *1248:A2 2.8185e-05
11 *213:17 *1248:A2 0.000118513
12 *213:32 *1248:A2 4.54719e-05
13 *213:41 *1248:A2 2.14129e-05
*RES
1 *1245:Y *1246:C 5.03 
2 *1245:Y *1248:A2 10.14 
*END

*D_NET *218 0.000644499
*CONN
*I *1248:B1 I *D sky130_fd_sc_hd__o211a_2
*I *1247:X O *D sky130_fd_sc_hd__a31o_2
*CAP
1 *1248:B1 0.000107497
2 *1247:X 0.000107497
3 *1248:B1 *373:20 0.000187766
4 *1248:A2 *1248:B1 9.50342e-06
5 *213:6 *1248:B1 8.41384e-05
6 *213:17 *1248:B1 0.000148097
*RES
1 *1247:X *1248:B1 10.485 
*END

*D_NET *219 0.0114961
*CONN
*I *1280:B I *D sky130_fd_sc_hd__or2_2
*I *1272:B I *D sky130_fd_sc_hd__or2_2
*I *1278:B I *D sky130_fd_sc_hd__or2_2
*I *1276:B I *D sky130_fd_sc_hd__or2_2
*I *1268:B I *D sky130_fd_sc_hd__or2_2
*I *1270:B I *D sky130_fd_sc_hd__or2_2
*I *1266:B I *D sky130_fd_sc_hd__or2_2
*I *1254:B1 I *D sky130_fd_sc_hd__a311o_2
*I *1250:B1_N I *D sky130_fd_sc_hd__o21bai_2
*I *1274:B I *D sky130_fd_sc_hd__or2_2
*I *1249:Y O *D sky130_fd_sc_hd__nor2_2
*CAP
1 *1280:B 3.10879e-05
2 *1272:B 0.000452924
3 *1278:B 0
4 *1276:B 2.07303e-05
5 *1268:B 0.00013779
6 *1270:B 0
7 *1266:B 0.00015901
8 *1254:B1 0.000288286
9 *1250:B1_N 6.80473e-05
10 *1274:B 0.000240233
11 *1249:Y 0.000171947
12 *219:71 0.000178833
13 *219:67 0.000447854
14 *219:35 0.000875993
15 *219:27 0.00118774
16 *219:16 0.000717828
17 *219:12 0.000255251
18 *219:10 0.000237661
19 *219:8 0.000555823
20 *219:6 0.000203035
21 *1250:B1_N *220:8 0.000197537
22 *1250:B1_N *239:33 4.80285e-05
23 *1254:B1 *1254:A2 3.06704e-05
24 *1254:B1 *220:8 0.000151541
25 *1254:B1 *239:23 8.43862e-05
26 *1254:B1 *239:33 0.000184866
27 *1254:B1 *248:18 1.18922e-05
28 *1254:B1 *273:97 0.000291906
29 *1254:B1 *384:27 0.000106544
30 *1266:B *1081:A0 0.000149399
31 *1266:B *1270:A 1.33293e-05
32 *1266:B *1271:B1 1.61831e-05
33 *1266:B *1316:CLK 0.000341413
34 *1268:B *245:55 0.000354537
35 *1272:B *1081:S1 0
36 *1272:B *1273:B1 2.75145e-05
37 *1272:B *1278:A 3.61388e-06
38 *1272:B *1279:B1 0
39 *1272:B *1280:A 0.000140247
40 *1272:B *245:61 9.2741e-05
41 *1272:B *272:57 0
42 *1272:B *396:10 0
43 *1274:B *1274:A 4.99619e-05
44 *1274:B *1275:C1 0.000136403
45 *1274:B *1341:CLK 4.99619e-05
46 *1276:B *1079:A2 4.77757e-05
47 *219:6 *1281:B1 6.27347e-05
48 *219:10 *1081:S1 0
49 *219:10 *1277:A3 0
50 *219:10 *1278:A 4.04796e-05
51 *219:12 *1276:A 0.000141592
52 *219:12 *268:83 0
53 *219:12 *394:12 4.1652e-06
54 *219:16 *1259:A 0
55 *219:16 *268:83 0
56 *219:16 *394:12 4.63352e-05
57 *219:27 *1082:S 2.75229e-05
58 *219:35 *1079:S0 0
59 *219:35 *1082:S 0.000223277
60 *219:35 *1251:B1_N 0
61 *219:35 *1255:A 8.16784e-05
62 *219:35 *1256:A3 0.000208477
63 *219:35 *1336:CLK 0
64 *219:35 *220:21 0
65 *219:35 *239:33 2.86623e-05
66 *219:35 *239:89 0
67 *219:35 *244:16 9.37731e-05
68 *219:35 *244:77 0
69 *219:35 *386:42 1.82476e-05
70 *219:67 *1267:A1 0
71 *219:67 *1267:A3 0
72 *219:67 *1268:A 0
73 *219:67 *239:89 0
74 *219:67 *245:14 7.46263e-05
75 *219:67 *245:38 6.18754e-05
76 *219:67 *245:55 3.39944e-05
77 *219:67 *268:79 0.000106536
78 *219:67 *386:42 1.23331e-05
79 *219:71 *1081:A0 4.66108e-05
80 *1082:A0 *219:27 0.000123225
81 *1082:A0 *219:67 5.21046e-05
82 *1082:A1 *219:67 0.000184845
83 *1083:A2 *219:27 4.8854e-05
84 *1267:A2 *219:67 0.00011852
85 *1337:D *1268:B 1.7902e-05
86 *1337:D *219:67 0.000209878
87 *1341:D *1274:B 7.53592e-05
88 *1434:A *1272:B 7.45881e-05
89 *1438:A *1268:B 0.000308364
90 *1438:A *1272:B 0
91 *3:30 *1254:B1 0.000209011
*RES
1 *1249:Y *219:6 4.12 
2 *219:6 *219:8 2 
3 *219:8 *219:10 1.635 
4 *219:10 *219:12 2.655 
5 *219:12 *219:16 3.635 
6 *219:16 *1274:B 6.535 
7 *219:16 *219:27 7.97 
8 *219:27 *219:35 13.115 
9 *219:35 *1250:B1_N 3.43 
10 *219:35 *1254:B1 13.6775 
11 *219:27 *219:67 8.82 
12 *219:67 *219:71 2.45 
13 *219:71 *1266:B 6.04 
14 *219:71 *1270:B 1.6 
15 *219:67 *1268:B 8.235 
16 *219:12 *1276:B 4.05 
17 *219:10 *1278:B 3.6 
18 *219:8 *1272:B 11.925 
19 *219:6 *1280:B 2.05 
*END

*D_NET *220 0.00459403
*CONN
*I *1258:A I *D sky130_fd_sc_hd__nand2_2
*I *1254:A3 I *D sky130_fd_sc_hd__a311o_2
*I *1256:A3 I *D sky130_fd_sc_hd__a31o_2
*I *1253:A2 I *D sky130_fd_sc_hd__a21oi_2
*I *1252:A2 I *D sky130_fd_sc_hd__a211oi_2
*I *1250:Y O *D sky130_fd_sc_hd__o21bai_2
*CAP
1 *1258:A 0.000180009
2 *1254:A3 6.43353e-05
3 *1256:A3 0.000285585
4 *1253:A2 0.000193578
5 *1252:A2 0.000136001
6 *1250:Y 0.000136023
7 *220:23 0.000346513
8 *220:21 0.000270674
9 *220:8 0.000431003
10 *1252:A2 *239:33 0
11 *1252:A2 *384:8 0
12 *1252:A2 *384:27 0
13 *1253:A2 *384:29 3.04245e-05
14 *1254:A3 *1254:A1 0.00011577
15 *1254:A3 *1254:A2 1.85674e-05
16 *1254:A3 *1255:B 1.34594e-05
17 *1254:A3 *384:29 0.000224698
18 *1256:A3 *1253:B1 2.68721e-05
19 *1256:A3 *1255:A 0.000139238
20 *1256:A3 *1256:A2 1.71824e-05
21 *1256:A3 *239:73 0
22 *1256:A3 *385:21 0.00015896
23 *1256:A3 *385:25 6.78944e-05
24 *1258:A *1258:B 2.86411e-05
25 *1258:A *225:6 7.43029e-05
26 *1258:A *225:8 2.86975e-05
27 *1258:A *248:18 0.000182653
28 *1258:A *384:33 4.82919e-05
29 *1258:A *384:64 0.000310264
30 *220:8 *273:97 0.000347917
31 *220:21 *239:73 0
32 *220:23 *1255:B 3.64998e-06
33 *220:23 *384:29 0.000113237
34 *1083:A1 *1256:A3 5.4155e-06
35 *1083:A2 *1256:A3 1.14169e-05
36 *1250:B1_N *220:8 0.000197537
37 *1254:B1 *220:8 0.000151541
38 *1257:B1 *1258:A 2.52012e-05
39 *3:30 *220:21 0
40 *219:35 *1256:A3 0.000208477
41 *219:35 *220:21 0
*RES
1 *1250:Y *220:8 7.845 
2 *220:8 *1252:A2 5.49 
3 *220:8 *220:21 4.4 
4 *220:21 *220:23 1.14 
5 *220:23 *1253:A2 1.8775 
6 *220:23 *1256:A3 12.26 
7 *220:21 *1254:A3 4.135 
8 *1253:A2 *1258:A 9.08 
*END

*D_NET *221 0.000452715
*CONN
*I *1252:B1 I *D sky130_fd_sc_hd__a211oi_2
*I *1251:X O *D sky130_fd_sc_hd__o21ba_2
*CAP
1 *1252:B1 0.000185689
2 *1251:X 0.000185689
3 *1252:B1 *1251:B1_N 6.80075e-05
4 *1331:D *1252:B1 1.33293e-05
*RES
1 *1251:X *1252:B1 5.645 
*END

*D_NET *222 0.000618626
*CONN
*I *1255:A I *D sky130_fd_sc_hd__nor2_2
*I *1253:Y O *D sky130_fd_sc_hd__a21oi_2
*CAP
1 *1255:A 9.19194e-05
2 *1253:Y 9.19194e-05
3 *1255:A *1253:B1 7.4027e-05
4 *1255:A *1255:B 0.000139843
5 *1256:A3 *1255:A 0.000139238
6 *219:35 *1255:A 8.16784e-05
*RES
1 *1253:Y *1255:A 10.875 
*END

*D_NET *223 0.000980665
*CONN
*I *1255:B I *D sky130_fd_sc_hd__nor2_2
*I *1254:X O *D sky130_fd_sc_hd__a311o_2
*CAP
1 *1255:B 0.000264791
2 *1254:X 0.000264791
3 *1255:B *1253:B1 7.4027e-05
4 *1255:B *1254:A1 0.000195585
5 *1255:B *239:73 0
6 *1255:B *244:77 2.45182e-05
7 *1254:A3 *1255:B 1.34594e-05
8 *1255:A *1255:B 0.000139843
9 *220:23 *1255:B 3.64998e-06
*RES
1 *1254:X *1255:B 12.36 
*END

*D_NET *224 0.000883081
*CONN
*I *1259:B I *D sky130_fd_sc_hd__and3_2
*I *1256:X O *D sky130_fd_sc_hd__a31o_2
*CAP
1 *1259:B 0.000183115
2 *1256:X 0.000183115
3 *1259:B *1259:C 0.000117825
4 *1259:B *1453:A 2.75229e-05
5 *1083:A1 *1259:B 0.000123955
6 *1083:A2 *1259:B 0.000161467
7 *1083:B1 *1259:B 8.60799e-05
*RES
1 *1256:X *1259:B 11.79 
*END

*D_NET *225 0.00306756
*CONN
*I *1258:B I *D sky130_fd_sc_hd__nand2_2
*I *1260:C1 I *D sky130_fd_sc_hd__o211a_2
*I *1261:A3 I *D sky130_fd_sc_hd__a31o_2
*I *1263:A3 I *D sky130_fd_sc_hd__a31o_2
*I *1257:X O *D sky130_fd_sc_hd__a31o_2
*CAP
1 *1258:B 1.30513e-05
2 *1260:C1 0.000243216
3 *1261:A3 0
4 *1263:A3 9.9798e-05
5 *1257:X 1.55019e-05
6 *225:14 0.000197683
7 *225:8 0.000596816
8 *225:6 0.000284269
9 *1260:C1 *1260:A1 1.12643e-05
10 *1260:C1 *265:25 0.000123596
11 *1263:A3 *1263:A1 0.00018534
12 *225:6 *248:18 4.28568e-05
13 *225:8 *1259:C 9.45943e-05
14 *225:8 *248:18 8.58261e-05
15 *225:8 *265:25 0.000613476
16 *225:14 *1262:B1_N 5.42646e-05
17 *225:14 *248:18 0
18 *225:14 *273:8 7.9381e-05
19 *225:14 *273:10 1.03833e-05
20 *1258:A *1258:B 2.86411e-05
21 *1258:A *225:6 7.43029e-05
22 *1258:A *225:8 2.86975e-05
23 *1260:B1 *225:14 0
24 *1261:A2 *1263:A3 0
25 *1263:B1 *225:14 1.22762e-05
26 *196:55 *1263:A3 0.000172328
*RES
1 *1257:X *225:6 2.395 
2 *225:6 *225:8 7.005 
3 *225:8 *225:14 6.4 
4 *225:14 *1263:A3 4.585 
5 *225:14 *1261:A3 1.6 
6 *225:8 *1260:C1 5.995 
7 *225:6 *1258:B 1.96 
*END

*D_NET *226 0.00100266
*CONN
*I *1259:C I *D sky130_fd_sc_hd__and3_2
*I *1258:Y O *D sky130_fd_sc_hd__nand2_2
*CAP
1 *1259:C 0.000268927
2 *1258:Y 0.000268927
3 *1259:C *1259:A 9.50342e-06
4 *1259:C *244:24 4.82919e-05
5 *1259:C *248:10 0
6 *1259:C *387:8 4.61658e-05
7 *1259:C *387:10 6.9451e-05
8 *1083:B1 *1259:C 7.89767e-05
9 *1259:B *1259:C 0.000117825
10 *225:8 *1259:C 9.45943e-05
*RES
1 *1258:Y *1259:C 13.32 
*END

*D_NET *227 0.000345278
*CONN
*I *1262:A2 I *D sky130_fd_sc_hd__o21ba_2
*I *1260:X O *D sky130_fd_sc_hd__o211a_2
*CAP
1 *1262:A2 0.000101839
2 *1260:X 0.000101839
3 *1262:A2 *1262:B1_N 0.000141599
*RES
1 *1260:X *1262:A2 9.285 
*END

*D_NET *228 0.000847378
*CONN
*I *1262:B1_N I *D sky130_fd_sc_hd__o21ba_2
*I *1261:X O *D sky130_fd_sc_hd__a31o_2
*CAP
1 *1262:B1_N 0.000223027
2 *1261:X 0.000223027
3 *1262:B1_N *1260:A1 5.73518e-05
4 *1262:B1_N *265:41 4.41506e-05
5 *1260:B1 *1262:B1_N 0
6 *1262:A2 *1262:B1_N 0.000141599
7 *1334:D *1262:B1_N 5.39961e-05
8 *196:55 *1262:B1_N 4.99619e-05
9 *225:14 *1262:B1_N 5.42646e-05
*RES
1 *1261:X *1262:B1_N 12.12 
*END

*D_NET *229 0.000772478
*CONN
*I *1265:A1 I *D sky130_fd_sc_hd__a21oi_2
*I *1263:X O *D sky130_fd_sc_hd__a31o_2
*CAP
1 *1265:A1 0.000235762
2 *1263:X 0.000235762
3 *1265:A1 *1265:B1 0.00012657
4 *1265:A1 *1335:CLK 0
5 *1265:A1 *273:10 0
6 *1263:A2 *1265:A1 5.53249e-06
7 *1263:B1 *1265:A1 0
8 *1335:D *1265:A1 0.00016885
*RES
1 *1263:X *1265:A1 12.015 
*END

*D_NET *230 0.00181611
*CONN
*I *1265:A2 I *D sky130_fd_sc_hd__a21oi_2
*I *1264:X O *D sky130_fd_sc_hd__or2_2
*CAP
1 *1265:A2 0.000436265
2 *1264:X 0.000436265
3 *1265:A2 *1067:A 0
4 *1265:A2 *1084:A 0
5 *1265:A2 *1084:B 0.000213912
6 *1265:A2 *1265:B1 0.0001138
7 *1265:A2 *262:10 0.000124895
8 *1265:A2 *387:10 2.07184e-05
9 *1265:A2 *387:12 0.000103592
10 *1265:A2 *387:18 0.0002337
11 *1265:A2 *387:51 4.66108e-05
12 *196:51 *1265:A2 8.63479e-05
*RES
1 *1264:X *1265:A2 16.95 
*END

*D_NET *231 0.000879423
*CONN
*I *1267:B1 I *D sky130_fd_sc_hd__o311a_2
*I *1266:X O *D sky130_fd_sc_hd__or2_2
*CAP
1 *1267:B1 0.000220105
2 *1266:X 0.000220105
3 *1267:B1 *1266:A 9.62171e-05
4 *1267:B1 *1297:CLK 0.000163012
5 *1267:B1 *1445:A 0
6 *1267:B1 *252:10 0
7 *1267:B1 *268:46 0
8 *3:30 *1267:B1 0.000179983
*RES
1 *1266:X *1267:B1 12.915 
*END

*D_NET *232 0.000322717
*CONN
*I *1269:B1 I *D sky130_fd_sc_hd__o311a_2
*I *1268:X O *D sky130_fd_sc_hd__or2_2
*CAP
1 *1269:B1 5.19771e-05
2 *1268:X 5.19771e-05
3 *1269:B1 *1267:A1 3.09451e-05
4 *1269:B1 *1268:A 0.000136182
5 *1269:B1 *1269:A3 5.16348e-05
*RES
1 *1268:X *1269:B1 8.835 
*END

*D_NET *233 0.00068458
*CONN
*I *1271:B1 I *D sky130_fd_sc_hd__o311a_2
*I *1270:X O *D sky130_fd_sc_hd__or2_2
*CAP
1 *1271:B1 8.67192e-05
2 *1270:X 8.67192e-05
3 *1271:B1 *1081:A0 0.000257539
4 *1271:B1 *1270:A 0.00015639
5 *1266:B *1271:B1 1.61831e-05
6 *3:30 *1271:B1 8.10286e-05
*RES
1 *1270:X *1271:B1 10.32 
*END

*D_NET *234 0.00114365
*CONN
*I *1273:B1 I *D sky130_fd_sc_hd__o311a_2
*I *1272:X O *D sky130_fd_sc_hd__or2_2
*CAP
1 *1273:B1 0.000465867
2 *1272:X 0.000465867
3 *1273:B1 *1081:A1 0
4 *1273:B1 *1271:A3 3.78912e-05
5 *1273:B1 *1273:A3 1.88602e-05
6 *1273:B1 *1281:A1 0
7 *1273:B1 *245:57 7.16743e-05
8 *1273:B1 *245:61 1.06723e-05
9 *1272:B *1273:B1 2.75145e-05
10 *1339:D *1273:B1 4.53039e-05
*RES
1 *1272:X *1273:B1 13.08 
*END

*D_NET *235 0.000378541
*CONN
*I *1275:B1 I *D sky130_fd_sc_hd__o311a_2
*I *1274:X O *D sky130_fd_sc_hd__or2_2
*CAP
1 *1275:B1 6.37235e-05
2 *1274:X 6.37235e-05
3 *1275:B1 *1275:C1 8.8266e-05
4 *1275:B1 *1341:CLK 4.35432e-05
5 *102:25 *1275:B1 0.000119285
*RES
1 *1274:X *1275:B1 5.045 
*END

*D_NET *236 0.000617872
*CONN
*I *1277:B1 I *D sky130_fd_sc_hd__o311a_2
*I *1276:X O *D sky130_fd_sc_hd__or2_2
*CAP
1 *1277:B1 0.000233299
2 *1276:X 0.000233299
3 *1277:B1 *1079:A2 1.54878e-05
4 *1277:B1 *1277:A3 9.50342e-06
5 *1277:B1 *1410:A 4.99619e-05
6 *1277:B1 *268:83 7.63204e-05
7 *1341:D *1277:B1 0
*RES
1 *1276:X *1277:B1 10.665 
*END

*D_NET *237 0.0021055
*CONN
*I *1279:B1 I *D sky130_fd_sc_hd__o311a_2
*I *1278:X O *D sky130_fd_sc_hd__or2_2
*CAP
1 *1279:B1 0.000375077
2 *1278:X 0.000375077
3 *1279:B1 *1081:A2 0.000119575
4 *1279:B1 *1081:A3 7.49327e-05
5 *1279:B1 *1277:A3 0
6 *1279:B1 *1278:A 0.000403735
7 *1279:B1 *1279:A3 4.82863e-05
8 *1279:B1 *1279:C1 0.000176132
9 *1279:B1 *1408:A 5.30673e-05
10 *1279:B1 *1411:A 8.8266e-05
11 *1279:B1 *265:65 0.000391354
12 *1279:B1 *265:93 0
13 *1279:B1 *272:57 0
14 *1272:B *1279:B1 0
*RES
1 *1278:X *1279:B1 17.895 
*END

*D_NET *238 0.00198036
*CONN
*I *1281:B1 I *D sky130_fd_sc_hd__o311a_2
*I *1280:X O *D sky130_fd_sc_hd__or2_2
*CAP
1 *1281:B1 0.000390008
2 *1280:X 0.000390008
3 *1281:B1 *1281:A3 0.000550826
4 *1281:B1 *1281:C1 0.000250412
5 *1281:B1 *265:69 0.00011852
6 *1281:B1 *265:82 8.65905e-05
7 *1281:B1 *265:93 1.91597e-05
8 *1281:B1 *272:57 0.000112105
9 *219:6 *1281:B1 6.27347e-05
*RES
1 *1280:X *1281:B1 17.82 
*END

*D_NET *239 0.0180686
*CONN
*I *1356:A I *D sky130_fd_sc_hd__clkbuf_16
*I *1355:A I *D sky130_fd_sc_hd__clkbuf_16
*I *1352:A I *D sky130_fd_sc_hd__clkbuf_16
*I *1351:A I *D sky130_fd_sc_hd__clkbuf_16
*I *1354:A I *D sky130_fd_sc_hd__clkbuf_16
*I *1353:A I *D sky130_fd_sc_hd__clkbuf_16
*I *1350:A I *D sky130_fd_sc_hd__clkbuf_16
*I *1349:A I *D sky130_fd_sc_hd__clkbuf_16
*I *1348:X O *D sky130_fd_sc_hd__clkbuf_16
*CAP
1 *1356:A 6.06542e-05
2 *1355:A 0
3 *1352:A 0
4 *1351:A 4.56627e-05
5 *1354:A 9.55124e-05
6 *1353:A 0
7 *1350:A 5.70914e-05
8 *1349:A 6.53038e-05
9 *1348:X 0.000160749
10 *239:179 0.000586944
11 *239:170 0.000584098
12 *239:161 0.000125992
13 *239:153 0.000593469
14 *239:124 0.00041291
15 *239:122 0.000917965
16 *239:110 0.00131437
17 *239:105 0.000283787
18 *239:89 0.0006076
19 *239:73 0.000897248
20 *239:51 7.2864e-05
21 *239:35 0.000702266
22 *239:33 0.00131635
23 *239:23 0.00194659
24 *239:10 0.00101315
25 *1349:A *240:24 6.80182e-05
26 *1350:A *1173:B 8.05879e-05
27 *1351:A *242:12 2.74281e-05
28 *1356:A *247:10 6.15781e-05
29 *239:23 *1075:A 2.75229e-05
30 *239:23 *1345:CLK 0
31 *239:23 *1367:A 0
32 *239:23 *273:97 2.17931e-05
33 *239:33 *1244:B1 7.8848e-05
34 *239:33 *1251:B1_N 0.000108659
35 *239:33 *273:78 0.000242677
36 *239:33 *273:97 7.98007e-06
37 *239:35 *1210:B 8.59401e-05
38 *239:35 *1244:B1 8.48193e-05
39 *239:35 *310:12 0
40 *239:35 *373:14 8.87475e-05
41 *239:35 *373:20 0.000201984
42 *239:51 *1173:B 1.08294e-05
43 *239:73 *1253:B1 0
44 *239:73 *1254:A1 3.39151e-05
45 *239:73 *1336:CLK 1.71013e-05
46 *239:73 *244:77 8.08282e-05
47 *239:89 *1267:A1 0.000184966
48 *239:89 *1336:CLK 0.00011562
49 *239:105 *1430:A 3.00786e-05
50 *239:110 *1430:A 0.000214174
51 *239:122 *1153:A 0
52 *239:122 *1187:A 5.05066e-06
53 *239:122 *370:22 0
54 *239:124 *340:10 6.55406e-05
55 *239:153 *1175:A1 5.83121e-06
56 *239:153 *246:46 0.000103974
57 *239:161 *1178:A1 0
58 *239:179 *1178:A1 0
59 *239:179 *246:46 6.36656e-05
60 *239:179 *247:10 0.00013415
61 *239:179 *354:10 5.84456e-05
62 *239:179 *354:20 0.000112097
63 *1092:A *239:124 7.28465e-06
64 *1094:B *239:124 0.000106953
65 *1094:D *239:124 0.000107727
66 *1110:B1 *239:10 1.53309e-05
67 *1110:B1 *239:23 0.00011929
68 *1110:B1 *239:105 7.62961e-05
69 *1110:B1 *239:110 4.15323e-05
70 *1112:B1 *239:122 4.86165e-05
71 *1150:A3 *239:122 5.92767e-05
72 *1150:A3 *239:124 9.87616e-05
73 *1155:C *239:122 0.000320354
74 *1155:C *239:124 7.46166e-05
75 *1175:A2 *239:153 7.63125e-05
76 *1175:B1 *239:122 6.85156e-05
77 *1175:B1 *239:153 4.09732e-05
78 *1176:A2 *239:122 8.6311e-05
79 *1182:B1 *239:153 2.86623e-05
80 *1184:A2 *239:153 1.9415e-05
81 *1184:B1 *239:153 1.71013e-05
82 *1212:B *239:35 7.13843e-05
83 *1250:B1_N *239:33 4.80285e-05
84 *1252:A2 *239:33 0
85 *1254:B1 *239:23 8.43862e-05
86 *1254:B1 *239:33 0.000184866
87 *1255:B *239:73 0
88 *1256:A3 *239:73 0
89 *1307:D *239:153 9.29751e-06
90 *1307:D *239:161 2.75145e-05
91 *1307:D *239:170 1.19928e-05
92 *1331:D *239:33 5.1518e-05
93 *1336:D *239:89 5.02217e-05
94 *1345:D *239:23 1.52184e-05
95 *3:30 *239:23 0
96 *3:30 *239:73 0.000441555
97 *3:30 *239:89 0.000582794
98 *54:8 *239:23 0
99 *108:8 *239:124 4.23341e-05
100 *114:10 *239:124 5.86575e-05
101 *115:10 *239:122 0
102 *124:14 *239:124 0.000103222
103 *169:14 *239:110 7.98636e-05
104 *169:14 *239:122 2.86623e-05
105 *169:14 *239:153 7.03824e-05
106 *170:8 *239:122 0
107 *170:12 *239:153 0.000381328
108 *185:38 *239:179 0
109 *185:47 *239:179 0
110 *185:58 *239:179 0
111 *219:35 *239:33 2.86623e-05
112 *219:35 *239:89 0
113 *219:67 *239:89 0
114 *220:21 *239:73 0
*RES
1 *1348:X *239:10 3.20875 
2 *239:10 *239:23 17.3913 
3 *239:23 *239:33 15.23 
4 *239:33 *239:35 12.345 
5 *239:35 *1349:A 4.74 
6 *239:33 *239:51 2.3 
7 *239:51 *1350:A 2.89 
8 *239:23 *239:73 10.955 
9 *239:73 *1353:A 3.6 
10 *239:73 *239:89 13.6475 
11 *239:89 *1354:A 2.9125 
12 *1348:X *239:105 2.75875 
13 *239:105 *239:110 4.91625 
14 *239:110 *239:122 13.67 
15 *239:122 *239:124 9.54 
16 *239:124 *1351:A 4.395 
17 *239:122 *1352:A 3.6 
18 *239:110 *239:153 13.415 
19 *239:153 *239:161 3.155 
20 *239:161 *1355:A 1.6 
21 *239:161 *239:170 2.795 
22 *239:170 *239:179 12.0575 
23 *239:179 *1356:A 2.8675 
*END

*D_NET *240 0.0101774
*CONN
*I *1327:CLK I *D sky130_fd_sc_hd__dfxtp_2
*I *1324:CLK I *D sky130_fd_sc_hd__dfxtp_2
*I *1321:CLK I *D sky130_fd_sc_hd__dfxtp_2
*I *1320:CLK I *D sky130_fd_sc_hd__dfxtp_2
*I *1318:CLK I *D sky130_fd_sc_hd__dfxtp_2
*I *1323:CLK I *D sky130_fd_sc_hd__dfxtp_2
*I *1322:CLK I *D sky130_fd_sc_hd__dfxtp_2
*I *1325:CLK I *D sky130_fd_sc_hd__dfxtp_2
*I *1319:CLK I *D sky130_fd_sc_hd__dfxtp_2
*I *1349:X O *D sky130_fd_sc_hd__clkbuf_16
*CAP
1 *1327:CLK 8.9143e-05
2 *1324:CLK 6.40469e-05
3 *1321:CLK 0
4 *1320:CLK 6.57754e-05
5 *1318:CLK 8.47462e-05
6 *1323:CLK 0.000158157
7 *1322:CLK 0.000386355
8 *1325:CLK 0.000446189
9 *1319:CLK 5.64928e-05
10 *1349:X 0.000644124
11 *240:77 0.000522488
12 *240:73 0.000881285
13 *240:51 0.000607526
14 *240:47 0.000943339
15 *240:32 0.000937768
16 *240:28 0.000335362
17 *240:24 0.000827516
18 *1318:CLK *371:37 0
19 *1319:CLK *1208:A_N 0.000115945
20 *1323:CLK *378:52 0.000161837
21 *1324:CLK *1423:A 2.86691e-05
22 *1327:CLK *1237:B 2.93136e-05
23 *240:24 *1210:A 0.000265776
24 *240:24 *1210:B 0.000302677
25 *240:24 *1211:D 0.000167957
26 *240:32 *1423:A 3.56402e-05
27 *240:32 *381:28 5.09431e-05
28 *240:47 *1217:B1_N 0
29 *240:47 *1423:A 0
30 *240:47 *263:29 0
31 *240:47 *263:33 0
32 *240:51 *1421:A 0.000139252
33 *240:51 *263:33 0
34 *240:73 *1421:A 8.65961e-05
35 *240:73 *378:65 0.00016031
36 *240:73 *379:14 0.000121643
37 *240:77 *1221:D 0.000223177
38 *1212:D *240:24 0.000309765
39 *1220:C *1318:CLK 1.1561e-05
40 *1225:B *240:51 0.00011686
41 *1231:D *240:73 8.35106e-05
42 *1232:A_N *240:47 0.000137578
43 *1320:D *1318:CLK 0.000140912
44 *1320:D *1320:CLK 8.23457e-05
45 *1321:D *240:77 5.20335e-05
46 *1322:D *1322:CLK 1.43717e-05
47 *1325:D *1325:CLK 4.82319e-06
48 *1349:A *240:24 6.80182e-05
49 *201:30 *240:73 0.000215553
*RES
1 *1349:X *1319:CLK 8.58 
2 *1349:X *240:24 15.78 
3 *240:24 *240:28 4.4 
4 *240:28 *240:32 2.5275 
5 *240:32 *1325:CLK 6.6325 
6 *240:32 *240:47 7.7375 
7 *240:47 *240:51 3.89 
8 *240:51 *1322:CLK 6.895 
9 *240:51 *1323:CLK 4.825 
10 *240:47 *240:73 11.765 
11 *240:73 *240:77 6.675 
12 *240:77 *1318:CLK 7.49 
13 *240:77 *1320:CLK 2.74 
14 *240:73 *1321:CLK 1.6 
15 *240:28 *1324:CLK 2.74 
16 *240:24 *1327:CLK 5.235 
*END

*D_NET *241 0.00776666
*CONN
*I *1305:CLK I *D sky130_fd_sc_hd__dfxtp_2
*I *1306:CLK I *D sky130_fd_sc_hd__dfxtp_2
*I *1331:CLK I *D sky130_fd_sc_hd__dfxtp_2
*I *1357:A I *D sky130_fd_sc_hd__clkbuf_4
*I *1346:CLK I *D sky130_fd_sc_hd__dfxtp_2
*I *1329:CLK I *D sky130_fd_sc_hd__dfxtp_2
*I *1328:CLK I *D sky130_fd_sc_hd__dfxtp_2
*I *1304:CLK I *D sky130_fd_sc_hd__dfxtp_2
*I *1326:CLK I *D sky130_fd_sc_hd__dfxtp_2
*I *1350:X O *D sky130_fd_sc_hd__clkbuf_16
*CAP
1 *1305:CLK 3.37453e-05
2 *1306:CLK 0.00015356
3 *1331:CLK 3.75029e-05
4 *1357:A 0.000292854
5 *1346:CLK 0.000257211
6 *1329:CLK 2.08101e-05
7 *1328:CLK 2.08101e-05
8 *1304:CLK 7.74286e-05
9 *1326:CLK 0.000219008
10 *1350:X 3.37453e-05
11 *241:75 0.000607758
12 *241:73 0.000621715
13 *241:24 0.000553081
14 *241:20 0.000634861
15 *241:18 0.00077814
16 *241:8 0.000736875
17 *241:6 0.000270494
18 *1304:CLK *1172:B 5.21714e-05
19 *1326:CLK *1172:B 1.22676e-05
20 *1346:CLK *1107:A 5.53249e-06
21 *1346:CLK *372:14 0
22 *241:8 *1107:A 1.26548e-05
23 *241:8 *1173:B 0
24 *241:8 *372:14 0
25 *241:8 *372:38 0
26 *241:18 *1173:A 3.00381e-05
27 *241:18 *372:8 0.000421023
28 *241:18 *373:10 7.47457e-05
29 *241:20 *372:8 8.46717e-05
30 *241:24 *1172:A 9.91257e-05
31 *241:24 *1240:A 8.65961e-05
32 *241:24 *273:35 0.000314745
33 *241:73 *273:105 0.00021328
34 *241:73 *372:38 0
35 *1214:B *1328:CLK 0
36 *1214:B *241:24 0.000212451
37 *1238:C *1326:CLK 1.01661e-05
38 *1241:B1_N *241:24 4.58166e-05
39 *1244:A2 *241:73 0
40 *1304:D *1304:CLK 0.000157308
41 *1304:D *1326:CLK 9.50342e-06
42 *1305:D *1305:CLK 5.83121e-06
43 *1305:D *241:8 0.000116158
44 *1305:D *241:73 9.50342e-06
45 *1326:D *1326:CLK 0.000143266
46 *1328:D *241:20 0.000238421
47 *1329:D *241:18 1.43717e-05
48 *1331:D *241:75 1.43717e-05
49 *1346:D *1346:CLK 0
50 *196:18 *241:20 3.30388e-05
51 *197:8 *1326:CLK 0
*RES
1 *1350:X *241:6 3.6 
2 *241:6 *241:8 1.635 
3 *241:8 *241:18 10.265 
4 *241:18 *241:20 5.97 
5 *241:20 *241:24 8.315 
6 *241:24 *1326:CLK 8.04 
7 *241:24 *1304:CLK 5.685 
8 *241:20 *1328:CLK 1.96 
9 *241:18 *1329:CLK 1.96 
10 *241:8 *1346:CLK 7.575 
11 *241:6 *241:73 6.44 
12 *241:73 *241:75 4.21125 
13 *241:75 *1357:A 5.54875 
14 *241:75 *1331:CLK 2.44375 
15 *241:73 *1306:CLK 3.775 
16 *1350:X *1305:CLK 3.65 
*END

*D_NET *242 0.00971635
*CONN
*I *1290:CLK I *D sky130_fd_sc_hd__dfxtp_2
*I *1289:CLK I *D sky130_fd_sc_hd__dfxtp_2
*I *1358:A I *D sky130_fd_sc_hd__clkbuf_4
*I *1286:CLK I *D sky130_fd_sc_hd__dfxtp_2
*I *1282:CLK I *D sky130_fd_sc_hd__dfxtp_2
*I *1284:CLK I *D sky130_fd_sc_hd__dfxtp_2
*I *1285:CLK I *D sky130_fd_sc_hd__dfxtp_2
*I *1288:CLK I *D sky130_fd_sc_hd__dfxtp_2
*I *1287:CLK I *D sky130_fd_sc_hd__dfxtp_2
*I *1351:X O *D sky130_fd_sc_hd__clkbuf_16
*CAP
1 *1290:CLK 0
2 *1289:CLK 0.000148735
3 *1358:A 0
4 *1286:CLK 0
5 *1282:CLK 0.000216761
6 *1284:CLK 0
7 *1285:CLK 0.000165456
8 *1288:CLK 0.000597594
9 *1287:CLK 2.08101e-05
10 *1351:X 0.00128411
11 *242:98 0.000670786
12 *242:61 0.000566319
13 *242:48 0.000994526
14 *242:44 0.000479512
15 *242:24 0.00100099
16 *242:18 0.000630025
17 *242:12 0.0010095
18 *1282:CLK *1126:A2 0.000219793
19 *1282:CLK *1282:D 2.49909e-05
20 *1282:CLK *343:23 1.19928e-05
21 *1285:CLK *1133:B 0
22 *1288:CLK *1395:A 2.75229e-05
23 *1288:CLK *350:6 0.000154098
24 *1288:CLK *350:37 0.000118294
25 *1289:CLK *348:14 4.92935e-05
26 *242:12 *1130:A1 0
27 *242:18 *1135:A1 0
28 *242:18 *351:33 0.000197264
29 *242:18 *351:43 1.44259e-05
30 *242:18 *352:38 0.00013994
31 *242:24 *1135:A1 0.000124895
32 *242:61 *1133:B 0
33 *242:61 *1218:C 0
34 *242:61 *264:39 0
35 *242:61 *264:41 0
36 *242:61 *376:10 0.00011852
37 *1121:D *242:18 0.000114492
38 *1143:B *1289:CLK 0
39 *1286:D *242:24 0
40 *1287:D *1288:CLK 1.43717e-05
41 *1290:D *242:98 1.43717e-05
42 *1351:A *242:12 2.74281e-05
43 *108:8 *242:12 0
44 *134:12 *1289:CLK 8.95828e-05
45 *137:20 *1288:CLK 7.88995e-05
46 *137:20 *242:24 0.000129236
47 *137:26 *242:24 9.92331e-05
48 *137:37 *242:18 6.65635e-05
49 *137:37 *242:24 2.24336e-05
50 *139:22 *1282:CLK 7.35863e-05
*RES
1 *1351:X *242:12 14.24 
2 *242:12 *242:18 7.76 
3 *242:18 *242:24 9.17 
4 *242:24 *1287:CLK 1.96 
5 *242:24 *1288:CLK 12.175 
6 *242:18 *242:44 2 
7 *242:44 *242:48 8.66 
8 *242:48 *1285:CLK 6.195 
9 *242:48 *242:61 6.225 
10 *242:61 *1284:CLK 3.6 
11 *242:61 *1282:CLK 8.325 
12 *242:44 *1286:CLK 1.6 
13 *242:12 *1358:A 1.6 
14 *1351:X *242:98 8.875 
15 *242:98 *1289:CLK 8.63 
16 *242:98 *1290:CLK 1.6 
*END

*D_NET *243 0.0101315
*CONN
*I *1292:CLK I *D sky130_fd_sc_hd__dfxtp_2
*I *1291:CLK I *D sky130_fd_sc_hd__dfxtp_2
*I *1293:CLK I *D sky130_fd_sc_hd__dfxtp_2
*I *1295:CLK I *D sky130_fd_sc_hd__dfxtp_2
*I *1359:A I *D sky130_fd_sc_hd__clkbuf_4
*I *1344:CLK I *D sky130_fd_sc_hd__dfxtp_2
*I *1294:CLK I *D sky130_fd_sc_hd__dfxtp_2
*I *1283:CLK I *D sky130_fd_sc_hd__dfxtp_2
*I *1330:CLK I *D sky130_fd_sc_hd__dfxtp_2
*I *1352:X O *D sky130_fd_sc_hd__clkbuf_16
*CAP
1 *1292:CLK 0
2 *1291:CLK 4.10426e-05
3 *1293:CLK 0.000192841
4 *1295:CLK 4.22946e-05
5 *1359:A 0
6 *1344:CLK 0.000257349
7 *1294:CLK 0
8 *1283:CLK 0
9 *1330:CLK 0.000446686
10 *1352:X 0.000318386
11 *243:71 0.000512116
12 *243:65 0.000837326
13 *243:40 0.000422443
14 *243:24 0.000598522
15 *243:20 0.000691854
16 *243:18 0.000418792
17 *243:14 0.000619367
18 *243:10 0.000374583
19 *1291:CLK *346:8 4.12775e-05
20 *1293:CLK *1113:B 0.00013521
21 *1293:CLK *344:14 1.36296e-05
22 *1330:CLK *1128:A 4.90227e-05
23 *1330:CLK *282:6 0.000121659
24 *1330:CLK *342:8 8.34281e-06
25 *1344:CLK *1111:A1 4.38051e-05
26 *1344:CLK *1152:A1 0.000166346
27 *1344:CLK *266:38 3.72916e-05
28 *243:10 *1071:A 4.13171e-05
29 *243:14 *1071:A 8.97564e-05
30 *243:20 *342:8 0.000154752
31 *243:24 *342:8 0.000169845
32 *243:40 *1122:A 0
33 *243:40 *1152:A1 0.000166346
34 *243:65 *1091:A_N 0.00020978
35 *243:65 *1091:C 0.000268718
36 *243:65 *1101:B 2.75145e-05
37 *243:65 *346:8 6.53053e-05
38 *243:65 *346:21 4.66108e-05
39 *243:71 *1113:B 0.000160658
40 *1111:A2 *1344:CLK 0
41 *1112:A3 *1344:CLK 0.000183971
42 *1128:B *1330:CLK 2.69153e-05
43 *1144:B *243:71 9.5433e-05
44 *1145:A *243:71 2.75538e-05
45 *1145:B *243:71 0.000166346
46 *1147:A *243:71 0.000206319
47 *1148:A *243:71 0
48 *1149:B *243:71 1.82563e-05
49 *1150:A3 *243:10 1.04258e-05
50 *1150:C1 *243:71 0.00011852
51 *1151:D1 *243:71 6.55328e-05
52 *1152:C1 *243:18 4.80285e-05
53 *1152:C1 *243:20 0.000113343
54 *1152:C1 *243:65 2.75229e-05
55 *1283:D *243:24 1.43717e-05
56 *1292:D *243:10 2.16389e-05
57 *1293:D *1293:CLK 6.60057e-05
58 *1295:D *1295:CLK 8.40269e-05
59 *1344:D *1344:CLK 0.000113663
60 *114:10 *243:18 2.97339e-05
61 *114:10 *243:20 4.41506e-05
62 *114:10 *243:65 0.000119025
63 *115:10 *243:10 7.26629e-05
64 *115:10 *243:14 8.97564e-05
65 *116:29 *1293:CLK 0
66 *124:30 *1344:CLK 0.00034599
67 *124:30 *243:40 0.000231564
*RES
1 *1352:X *243:10 8.1 
2 *243:10 *243:14 3.89 
3 *243:14 *243:18 1.155 
4 *243:18 *243:20 7.35 
5 *243:20 *243:24 3.225 
6 *243:24 *1330:CLK 8.95 
7 *243:24 *1283:CLK 1.6 
8 *243:20 *243:40 6.185 
9 *243:40 *1294:CLK 3.6 
10 *243:40 *1344:CLK 10.65 
11 *243:18 *1359:A 1.6 
12 *243:14 *243:65 10.8 
13 *243:65 *243:71 10.115 
14 *243:71 *1295:CLK 4.395 
15 *243:71 *1293:CLK 6.99 
16 *243:65 *1291:CLK 2.395 
17 *243:10 *1292:CLK 3.6 
*END

*D_NET *244 0.01076
*CONN
*I *1336:CLK I *D sky130_fd_sc_hd__dfxtp_2
*I *1301:CLK I *D sky130_fd_sc_hd__dfxtp_2
*I *1332:CLK I *D sky130_fd_sc_hd__dfxtp_2
*I *1345:CLK I *D sky130_fd_sc_hd__dfxtp_2
*I *1333:CLK I *D sky130_fd_sc_hd__dfxtp_2
*I *1334:CLK I *D sky130_fd_sc_hd__dfxtp_2
*I *1340:CLK I *D sky130_fd_sc_hd__dfxtp_2
*I *1341:CLK I *D sky130_fd_sc_hd__dfxtp_2
*I *1335:CLK I *D sky130_fd_sc_hd__dfxtp_2
*I *1353:X O *D sky130_fd_sc_hd__clkbuf_16
*CAP
1 *1336:CLK 0.000107392
2 *1301:CLK 2.08101e-05
3 *1332:CLK 3.37585e-05
4 *1345:CLK 0.000437594
5 *1333:CLK 0
6 *1334:CLK 0
7 *1340:CLK 8.55153e-05
8 *1341:CLK 0.000288027
9 *1335:CLK 0.000437915
10 *1353:X 0.000121109
11 *244:85 0.000695507
12 *244:77 0.000598388
13 *244:71 0.000757688
14 *244:39 0.000530602
15 *244:28 0.000775621
16 *244:24 0.000754576
17 *244:16 0.000995531
18 *244:6 0.000839583
19 *1335:CLK *265:41 0
20 *1341:CLK *1274:A 4.60584e-05
21 *1341:CLK *1275:A3 4.66108e-05
22 *1341:CLK *1275:C1 0.000137828
23 *1345:CLK *1104:B 0.0001249
24 *1345:CLK *1109:A 0.00049506
25 *1345:CLK *1376:A 0
26 *1345:CLK *248:29 9.07342e-05
27 *1345:CLK *266:12 4.47125e-05
28 *244:16 *1082:S 9.37731e-05
29 *244:16 *386:6 3.03775e-05
30 *244:16 *386:12 2.76356e-05
31 *244:85 *1301:D 3.51254e-06
32 *244:85 *1332:D 0
33 tx *1335:CLK 2.56523e-05
34 tx *244:39 6.31804e-05
35 *1110:A2 *1345:CLK 7.26629e-05
36 *1255:B *244:77 2.45182e-05
37 *1259:C *244:24 4.82919e-05
38 *1260:B1 *1335:CLK 0
39 *1263:A2 *1335:CLK 0
40 *1265:A1 *1335:CLK 0
41 *1274:B *1341:CLK 4.99619e-05
42 *1275:B1 *1341:CLK 4.35432e-05
43 *1306:D *1345:CLK 0.000233925
44 *1333:D *244:16 0.000102732
45 *1333:D *244:24 8.69583e-05
46 *1334:D *244:24 7.56999e-05
47 *1335:D *1335:CLK 4.18603e-06
48 *1340:D *1341:CLK 2.11084e-05
49 *1371:A *1345:CLK 0
50 *1377:A *244:85 0
51 *1399:A *244:77 0.000123225
52 *1433:A *1335:CLK 0.000150837
53 *1433:A *244:39 0.000183738
54 *1435:A *1340:CLK 0.000187766
55 *1435:A *244:39 0.000150837
56 *54:8 *1345:CLK 0.000128066
57 *102:10 *244:39 0
58 *102:25 *1341:CLK 5.49536e-05
59 *219:35 *1336:CLK 0
60 *219:35 *244:16 9.37731e-05
61 *219:35 *244:77 0
62 *239:23 *1345:CLK 0
63 *239:73 *1336:CLK 1.71013e-05
64 *239:73 *244:77 8.08282e-05
65 *239:89 *1336:CLK 0.00011562
*RES
1 *1353:X *244:6 2.74 
2 *244:6 *244:16 10.765 
3 *244:16 *244:24 9.12 
4 *244:24 *244:28 4.52 
5 *244:28 *1335:CLK 11.61 
6 *244:28 *244:39 4.185 
7 *244:39 *1341:CLK 9.225 
8 *244:39 *1340:CLK 5.745 
9 *244:24 *1334:CLK 1.6 
10 *244:16 *1333:CLK 1.6 
11 *244:6 *244:71 5.21 
12 *244:71 *244:77 7.79 
13 *244:77 *244:85 5.135 
14 *244:85 *1345:CLK 15.48 
15 *244:85 *1332:CLK 4.05 
16 *244:77 *1301:CLK 1.96 
17 *244:71 *1336:CLK 6.255 
*END

*D_NET *245 0.0102205
*CONN
*I *1337:CLK I *D sky130_fd_sc_hd__dfxtp_2
*I *1302:CLK I *D sky130_fd_sc_hd__dfxtp_2
*I *1338:CLK I *D sky130_fd_sc_hd__dfxtp_2
*I *1339:CLK I *D sky130_fd_sc_hd__dfxtp_2
*I *1343:CLK I *D sky130_fd_sc_hd__dfxtp_2
*I *1342:CLK I *D sky130_fd_sc_hd__dfxtp_2
*I *1316:CLK I *D sky130_fd_sc_hd__dfxtp_2
*I *1297:CLK I *D sky130_fd_sc_hd__dfxtp_2
*I *1360:A I *D sky130_fd_sc_hd__clkbuf_4
*I *1354:X O *D sky130_fd_sc_hd__clkbuf_16
*CAP
1 *1337:CLK 0
2 *1302:CLK 7.86576e-05
3 *1338:CLK 0
4 *1339:CLK 2.21004e-05
5 *1343:CLK 0
6 *1342:CLK 0.000240397
7 *1316:CLK 0.000338686
8 *1297:CLK 0.000770384
9 *1360:A 0
10 *1354:X 3.76639e-05
11 *245:92 0.000618344
12 *245:61 0.000839447
13 *245:57 0.00106675
14 *245:55 0.00115997
15 *245:38 0.000547574
16 *245:14 0.000955437
17 *245:8 0.000219263
18 *245:6 3.76639e-05
19 *1297:CLK *1079:A0 3.59311e-05
20 *1297:CLK *1267:A3 7.00889e-06
21 *1297:CLK *1267:C1 4.58166e-05
22 *1297:CLK *1297:D 5.23341e-05
23 *1297:CLK *252:10 4.82919e-05
24 *1297:CLK *268:31 0.0001477
25 *1316:CLK *1266:A 0.00012657
26 *1316:CLK *1270:A 1.63179e-05
27 *1342:CLK *1279:A1 0.000141868
28 *245:14 *1268:A 0.000184343
29 *245:14 *265:108 0.000120655
30 *245:38 *1268:A 0.000116853
31 *245:55 *1268:A 0.000419054
32 *245:57 *392:8 1.4399e-05
33 tx_busy *1342:CLK 0.000106819
34 *1266:B *1316:CLK 0.000341413
35 *1267:B1 *1297:CLK 0.000163012
36 *1268:B *245:55 0.000354537
37 *1272:B *245:61 9.2741e-05
38 *1273:B1 *245:57 7.16743e-05
39 *1273:B1 *245:61 1.06723e-05
40 *1338:D *245:92 0.000238427
41 *1339:D *245:57 0.000124689
42 *1343:D *245:61 1.43717e-05
43 *1438:A *245:55 9.387e-06
44 *1443:A *1342:CLK 1.16578e-05
45 *3:30 *1297:CLK 0.000101126
46 *102:92 *1342:CLK 0
47 *219:67 *245:14 7.46263e-05
48 *219:67 *245:38 6.18754e-05
49 *219:67 *245:55 3.39944e-05
*RES
1 *1354:X *245:6 2.05 
2 *245:6 *245:8 2 
3 *245:8 *245:14 6.065 
4 *245:14 *1360:A 1.6 
5 *245:14 *1297:CLK 16.94 
6 *245:8 *245:38 1.38 
7 *245:38 *1316:CLK 8.91 
8 *245:38 *245:55 7.205 
9 *245:55 *245:57 6.66 
10 *245:57 *245:61 8.31 
11 *245:61 *1342:CLK 10.46 
12 *245:61 *1343:CLK 1.6 
13 *245:57 *1339:CLK 1.96 
14 *245:55 *245:92 7.71 
15 *245:92 *1338:CLK 1.6 
16 *245:92 *1302:CLK 2.74 
17 *245:6 *1337:CLK 1.6 
*END

*D_NET *246 0.0091243
*CONN
*I *1310:CLK I *D sky130_fd_sc_hd__dfxtp_2
*I *1361:A I *D sky130_fd_sc_hd__clkbuf_4
*I *1307:CLK I *D sky130_fd_sc_hd__dfxtp_2
*I *1308:CLK I *D sky130_fd_sc_hd__dfxtp_2
*I *1311:CLK I *D sky130_fd_sc_hd__dfxtp_2
*I *1347:CLK I *D sky130_fd_sc_hd__dfxtp_2
*I *1315:CLK I *D sky130_fd_sc_hd__dfxtp_2
*I *1296:CLK I *D sky130_fd_sc_hd__dfxtp_2
*I *1309:CLK I *D sky130_fd_sc_hd__dfxtp_2
*I *1355:X O *D sky130_fd_sc_hd__clkbuf_16
*CAP
1 *1310:CLK 0.000131283
2 *1361:A 0
3 *1307:CLK 0
4 *1308:CLK 0.000221635
5 *1311:CLK 0
6 *1347:CLK 7.90313e-05
7 *1315:CLK 4.00617e-05
8 *1296:CLK 2.45313e-05
9 *1309:CLK 0.000182383
10 *1355:X 0.000131283
11 *246:76 0.000501058
12 *246:56 0.000341951
13 *246:50 0.000825497
14 *246:46 0.000486595
15 *246:38 0.000461456
16 *246:12 0.000572362
17 *246:6 0.000663526
18 *1296:CLK *1191:A1 3.57349e-05
19 *1308:CLK *1179:A 0
20 *1308:CLK *1207:C1 0
21 *1308:CLK *1369:A 8.49205e-05
22 *1308:CLK *269:25 0.000347034
23 *1309:CLK *1068:A 2.15594e-05
24 *1309:CLK *1157:C1 4.14369e-05
25 *1309:CLK *1186:A 0.000308055
26 *1309:CLK *355:8 2.49909e-05
27 *1347:CLK *1367:A 0
28 *1347:CLK *266:81 0.000162318
29 *246:12 *1190:B 3.05373e-05
30 *246:12 *1191:A1 0.000258828
31 *246:12 *271:107 0.000114424
32 *246:12 *271:118 9.67665e-05
33 *246:12 *353:8 2.75145e-05
34 *246:12 *353:21 0.000102184
35 *246:38 *353:21 5.20968e-05
36 *246:38 *354:20 0.000124007
37 *246:46 *1178:A1 3.47837e-05
38 *246:46 *354:20 4.82919e-05
39 *246:56 *1099:A1 7.23602e-05
40 *246:56 *1193:A1 0
41 *246:56 *1370:A 0
42 *246:56 *266:102 0.000144606
43 *246:76 *1179:A 0
44 *246:76 *1193:A1 0
45 *1099:A3 *246:56 4.66108e-05
46 *1177:A *246:50 0.000198945
47 *1178:B1 *246:50 5.05521e-05
48 *1182:B1 *246:46 0
49 *1185:B *1309:CLK 0
50 *1186:C *1309:CLK 2.75145e-05
51 *1193:A2 *1308:CLK 0.000152807
52 *1193:A2 *246:76 0.000185405
53 *1203:A2 *246:56 0.00016651
54 *1203:A3 *246:56 4.82863e-05
55 *1203:B1 *246:56 4.82863e-05
56 *1307:D *246:46 0.00013994
57 *1310:D *246:12 4.82919e-05
58 *1315:D *1315:CLK 4.99619e-05
59 *93:12 *1309:CLK 0.000116151
60 *119:50 *1309:CLK 0
61 *159:10 *1315:CLK 7.35729e-05
62 *159:10 *1347:CLK 0
63 *159:10 *246:56 0.000157278
64 *173:12 *246:50 0.000123225
65 *173:12 *246:56 1.0183e-05
66 *173:12 *246:76 8.47629e-05
67 *173:36 *246:76 5.30144e-05
68 *179:39 *246:38 0.000223907
69 *185:12 *246:50 0.000156355
70 *185:38 *246:12 0
71 *185:38 *246:38 0
72 *185:38 *246:46 0
73 *239:153 *246:46 0.000103974
74 *239:179 *246:46 6.36656e-05
*RES
1 *1355:X *246:6 3.6 
2 *246:6 *246:12 10.28 
3 *246:12 *1309:CLK 10.235 
4 *246:12 *1296:CLK 2.05 
5 *246:6 *246:38 7.715 
6 *246:38 *246:46 8.125 
7 *246:46 *246:50 8.66 
8 *246:50 *246:56 7.955 
9 *246:56 *1315:CLK 2.74 
10 *246:56 *1347:CLK 7.49 
11 *246:50 *246:76 5.97 
12 *246:76 *1311:CLK 3.6 
13 *246:76 *1308:CLK 9.06 
14 *246:46 *1307:CLK 1.6 
15 *246:38 *1361:A 1.6 
16 *1355:X *1310:CLK 5.03 
*END

*D_NET *247 0.00875253
*CONN
*I *1314:CLK I *D sky130_fd_sc_hd__dfxtp_2
*I *1300:CLK I *D sky130_fd_sc_hd__dfxtp_2
*I *1313:CLK I *D sky130_fd_sc_hd__dfxtp_2
*I *1299:CLK I *D sky130_fd_sc_hd__dfxtp_2
*I *1303:CLK I *D sky130_fd_sc_hd__dfxtp_2
*I *1298:CLK I *D sky130_fd_sc_hd__dfxtp_2
*I *1317:CLK I *D sky130_fd_sc_hd__dfxtp_2
*I *1312:CLK I *D sky130_fd_sc_hd__dfxtp_2
*I *1362:A I *D sky130_fd_sc_hd__clkbuf_4
*I *1356:X O *D sky130_fd_sc_hd__clkbuf_16
*CAP
1 *1314:CLK 0
2 *1300:CLK 0.000226418
3 *1313:CLK 0
4 *1299:CLK 0.000266027
5 *1303:CLK 0
6 *1298:CLK 4.17567e-05
7 *1317:CLK 0
8 *1312:CLK 0.000704258
9 *1362:A 0
10 *1356:X 0.0007479
11 *247:98 0.000514951
12 *247:71 0.00029684
13 *247:64 0.000735132
14 *247:42 8.24998e-05
15 *247:21 0.000745001
16 *247:19 0.000957662
17 *247:10 0.00071271
18 *1299:CLK *1170:A 0
19 *1299:CLK *1299:D 3.77036e-05
20 *1299:CLK *291:12 0.000161529
21 *1300:CLK *1201:A1 0.000131791
22 *1300:CLK *291:12 0.000141606
23 *1312:CLK *1298:D 7.99391e-05
24 *1312:CLK *1382:A 0
25 *1312:CLK *253:10 0.000347911
26 *247:19 *1206:B1_N 0
27 *247:19 *267:31 0
28 *247:64 *1298:D 0.000139933
29 *247:64 *1303:D 1.43717e-05
30 *247:64 *253:10 0
31 *247:64 *258:8 0.000352156
32 *247:98 *1199:A 8.23457e-05
33 *1168:B *1312:CLK 0.000162762
34 *1194:A1 *247:10 0
35 *1197:B1 *1299:CLK 5.74791e-05
36 *1199:C *247:98 7.35813e-05
37 *1201:A2 *247:98 8.49205e-05
38 *1204:A1 *1312:CLK 9.50342e-06
39 *1313:D *1299:CLK 0.000186099
40 *1314:D *1300:CLK 4.82863e-05
41 *1317:D *247:19 0
42 *1356:A *247:10 6.15781e-05
43 *158:43 *1299:CLK 4.82919e-05
44 *158:53 *247:19 0
45 *158:53 *247:64 0.000199833
46 *158:63 *247:19 0
47 *159:38 *1312:CLK 2.23407e-05
48 *172:17 *247:10 0
49 *179:89 *1300:CLK 0.000143266
50 *239:179 *247:10 0.00013415
*RES
1 *1356:X *247:10 9.57 
2 *247:10 *1362:A 3.6 
3 *247:10 *247:19 3.93 
4 *247:19 *247:21 2 
5 *247:21 *1312:CLK 16.52 
6 *247:21 *247:42 0.81 
7 *247:42 *1317:CLK 1.6 
8 *247:42 *1298:CLK 2.41 
9 *247:19 *247:64 14.345 
10 *247:64 *1303:CLK 1.6 
11 *247:64 *247:71 0.45 
12 *247:71 *1299:CLK 11.3 
13 *247:71 *1313:CLK 1.6 
14 *1356:X *247:98 6.115 
15 *247:98 *1300:CLK 10.46 
16 *247:98 *1314:CLK 1.6 
*END

*D_NET *248 0.0106129
*CONN
*I *1372:A I *D sky130_fd_sc_hd__clkdlybuf4s25_1
*I *1109:B I *D sky130_fd_sc_hd__or2_2
*I *1111:C1 I *D sky130_fd_sc_hd__a221o_2
*I *1173:A I *D sky130_fd_sc_hd__or2_2
*I *1254:C1 I *D sky130_fd_sc_hd__a311o_2
*I *1433:X O *D sky130_fd_sc_hd__clkdlybuf4s25_1
*CAP
1 *1372:A 0
2 *1109:B 0
3 *1111:C1 0.000824697
4 *1173:A 0.000319633
5 *1254:C1 0
6 *1433:X 0.000706956
7 *248:33 0.00148787
8 *248:29 0.000504452
9 *248:18 0.00131355
10 *248:10 0.00185959
11 *1111:C1 *1418:A 8.41703e-06
12 *1111:C1 *369:27 0.000536386
13 *1173:A *1107:A 4.24562e-05
14 *248:10 *1259:A 3.68596e-05
15 *248:10 *1453:A 0
16 *248:10 *387:8 0.000108322
17 *248:10 *387:10 0.000189426
18 *248:18 *265:25 0.000271303
19 *248:18 *273:8 0
20 *248:18 *384:27 0.000105052
21 *248:18 *384:29 0.00048513
22 *248:18 *384:33 0.0001249
23 *248:18 *387:10 7.23602e-05
24 *248:29 *1109:A 5.53249e-06
25 *248:33 *1074:A 0.000349596
26 *248:33 *1109:A 0.000274473
27 *248:33 *273:105 0
28 tx *248:10 4.82919e-05
29 *1107:B *1173:A 0
30 *1110:A1 *248:33 0.000320834
31 *1254:B1 *248:18 1.18922e-05
32 *1258:A *248:18 0.000182653
33 *1259:C *248:10 0
34 *1305:D *1173:A 4.66108e-05
35 *1345:CLK *248:29 9.07342e-05
36 *1371:A *248:29 0.000116629
37 *124:30 *1111:C1 9.5799e-06
38 *225:6 *248:18 4.28568e-05
39 *225:8 *248:18 8.58261e-05
40 *225:14 *248:18 0
41 *241:18 *1173:A 3.00381e-05
*RES
1 *1433:X *248:10 13.995 
2 *248:10 *248:18 17.99 
3 *248:18 *1254:C1 1.6 
4 *248:18 *248:29 5.795 
5 *248:29 *248:33 10.1675 
6 *248:33 *1173:A 7.04857 
7 *248:33 *1111:C1 5.9437 
8 *248:29 *1109:B 3.6 
9 *248:10 *1372:A 3.6 
*END

*D_NET *249 0.00231526
*CONN
*I *1281:A1 I *D sky130_fd_sc_hd__o311a_2
*I *1434:X O *D sky130_fd_sc_hd__clkdlybuf4s25_1
*CAP
1 *1281:A1 0.000527501
2 *1434:X 0.000527501
3 *1281:A1 *1271:A3 0
4 *1281:A1 *1272:A 0.000180039
5 *1281:A1 *1273:A1 8.64421e-05
6 *1281:A1 *1412:A 0
7 *1273:B1 *1281:A1 0
8 *1281:A2 *1281:A1 3.95724e-05
9 *1339:D *1281:A1 0.000136599
10 *1434:A *1281:A1 0
11 *1440:A *1281:A1 0.000768754
12 *102:100 *1281:A1 4.88478e-05
*RES
1 *1434:X *1281:A1 19.8 
*END

*D_NET *250 0.0024628
*CONN
*I *1077:A I *D sky130_fd_sc_hd__inv_2
*I *1260:A1 I *D sky130_fd_sc_hd__o211a_2
*I *1435:X O *D sky130_fd_sc_hd__clkdlybuf4s25_1
*CAP
1 *1077:A 0
2 *1260:A1 0.000173984
3 *1435:X 0.000246587
4 *250:10 0.00042057
5 *1260:A1 *265:25 7.25921e-06
6 *1260:A1 *265:41 0.000208484
7 *250:10 *1275:A1 0.00021067
8 *250:10 *265:41 0.000282697
9 *250:10 *265:54 0.00032732
10 *1260:C1 *1260:A1 1.12643e-05
11 *1262:B1_N *1260:A1 5.73518e-05
12 *1334:D *1260:A1 0.000194275
13 *1334:D *250:10 5.53249e-06
14 *1433:A *1260:A1 0
15 *1433:A *250:10 0
16 *102:10 *250:10 0.000316806
*RES
1 *1435:X *250:10 11.55 
2 *250:10 *1260:A1 8.44875 
3 *250:10 *1077:A 3.6 
*END

*D_NET *251 0.0011458
*CONN
*I *1444:A I *D sky130_fd_sc_hd__clkdlybuf4s25_1
*I *1393:A I *D sky130_fd_sc_hd__dlygate4sd3_1
*I *1296:Q O *D sky130_fd_sc_hd__dfxtp_2
*CAP
1 *1444:A 0.000241156
2 *1393:A 0.000116629
3 *1296:Q 0.00010704
4 *251:8 0.000464825
5 rx_data[0] *1444:A 0
6 *158:27 *1393:A 9.78734e-05
7 *158:27 *1444:A 0.000118279
*RES
1 *1296:Q *251:8 4.74 
2 *251:8 *1393:A 6.255 
3 *251:8 *1444:A 8.16 
*END

*D_NET *252 0.00381685
*CONN
*I *1445:A I *D sky130_fd_sc_hd__clkdlybuf4s25_1
*I *1158:A I *D sky130_fd_sc_hd__or2_2
*I *1297:Q O *D sky130_fd_sc_hd__dfxtp_2
*CAP
1 *1445:A 0.000373588
2 *1158:A 0.000722623
3 *1297:Q 7.94866e-05
4 *252:10 0.0011757
5 *1158:A *1159:A1 2.47827e-05
6 *1158:A *1266:A 2.65814e-06
7 *1158:A *1415:A 4.82919e-05
8 *1445:A *1266:A 0.000314151
9 *1445:A *1270:A 0.000425135
10 *1445:A *1271:A1 0
11 *1445:A *268:46 0.000245718
12 *252:10 *1267:C1 3.00381e-05
13 *252:10 *268:46 6.10014e-05
14 *1159:B1 *1158:A 0.000121437
15 *1267:B1 *1445:A 0
16 *1267:B1 *252:10 0
17 *1297:CLK *252:10 4.82919e-05
18 *1338:D *1445:A 5.72004e-05
19 *1379:A *1158:A 4.99619e-05
20 *1383:A *1445:A 0
21 *3:30 *1445:A 0
22 *158:67 *1158:A 3.67871e-05
*RES
1 *1297:Q *252:10 5.43 
2 *252:10 *1158:A 14.085 
3 *252:10 *1445:A 14.16 
*END

*D_NET *253 0.00269386
*CONN
*I *1446:A I *D sky130_fd_sc_hd__clkdlybuf4s25_1
*I *1160:A I *D sky130_fd_sc_hd__or2_2
*I *1298:Q O *D sky130_fd_sc_hd__dfxtp_2
*CAP
1 *1446:A 0.000117943
2 *1160:A 7.05825e-05
3 *1298:Q 0.000371244
4 *253:10 0.000559769
5 *1446:A *1171:C1 0.000354725
6 *1446:A *1387:A 0.000130721
7 *253:10 *1298:D 0
8 *253:10 *1387:A 0.000271334
9 *1312:CLK *253:10 0.000347911
10 *1388:A *1160:A 2.16833e-05
11 *158:53 *1160:A 4.66108e-05
12 *158:63 *1160:A 4.66108e-05
13 *159:76 *1446:A 0.000354725
14 *247:64 *253:10 0
*RES
1 *1298:Q *253:10 9.975 
2 *253:10 *1160:A 4.74 
3 *253:10 *1446:A 8.445 
*END

*D_NET *254 0.00199039
*CONN
*I *1162:A I *D sky130_fd_sc_hd__or2_2
*I *1447:A I *D sky130_fd_sc_hd__clkdlybuf4s25_1
*I *1299:Q O *D sky130_fd_sc_hd__dfxtp_2
*CAP
1 *1162:A 6.88403e-05
2 *1447:A 0.000338329
3 *1299:Q 0.000204052
4 *254:6 0.000611221
5 *1162:A *1163:C1 0.000257005
6 *1447:A *1299:D 0.000111184
7 *1162:B *1162:A 0.000187766
8 *1390:A *1447:A 4.11194e-05
9 *158:31 *1162:A 5.23362e-05
10 *158:43 *1447:A 0.000118533
11 *159:91 *1162:A 0
*RES
1 *1299:Q *254:6 3.775 
2 *254:6 *1447:A 10.19 
3 *254:6 *1162:A 8.51 
*END

*D_NET *255 0.00158663
*CONN
*I *1394:A I *D sky130_fd_sc_hd__dlygate4sd3_1
*I *1448:A I *D sky130_fd_sc_hd__clkdlybuf4s25_1
*I *1300:Q O *D sky130_fd_sc_hd__dfxtp_2
*CAP
1 *1394:A 0
2 *1448:A 0.000285019
3 *1300:Q 0.000201994
4 *255:10 0.000487013
5 rx_data[4] *1448:A 0.000324208
6 rx_data[4] *255:10 0.000127757
7 *1390:A *1448:A 0.000160641
8 *158:27 *255:10 0
9 *158:31 *255:10 0
*RES
1 *1300:Q *255:10 9.275 
2 *255:10 *1448:A 7.585 
3 *255:10 *1394:A 1.6 
*END

*D_NET *256 0.00429673
*CONN
*I *1449:A I *D sky130_fd_sc_hd__clkdlybuf4s25_1
*I *1166:A I *D sky130_fd_sc_hd__or2_2
*I *1301:Q O *D sky130_fd_sc_hd__dfxtp_2
*CAP
1 *1449:A 0.000792842
2 *1166:A 0.000229379
3 *1301:Q 0.000347883
4 *256:10 0.0013701
5 *1166:A *1192:B1_N 2.75145e-05
6 *1449:A *1168:A 0
7 *1449:A *1171:C1 5.92849e-05
8 *1449:A *1192:B1_N 0.000319855
9 *1449:A *1193:A1 0.000134389
10 *1449:A *1450:A 0
11 *1449:A *267:31 5.39961e-05
12 *1449:A *268:23 4.24292e-06
13 *1449:A *269:129 0
14 *256:10 *1193:A1 2.46089e-05
15 *256:10 *268:23 3.49945e-05
16 *256:10 *272:12 0.000197633
17 *256:10 *272:23 5.05521e-05
18 *1166:B *1166:A 0.000118081
19 *1166:B *1449:A 0.000128143
20 *1167:B1 *1166:A 4.0843e-05
21 *1168:B *1449:A 9.84761e-05
22 *1311:D *1449:A 9.71067e-05
23 *1312:D *1449:A 0.000162318
24 *159:76 *1449:A 0
25 *179:60 *1449:A 4.48373e-06
*RES
1 *1301:Q *256:10 8.37 
2 *256:10 *1166:A 6.48 
3 *256:10 *1449:A 21.09 
*END

*D_NET *257 0.000944635
*CONN
*I *1450:A I *D sky130_fd_sc_hd__clkdlybuf4s25_1
*I *1168:A I *D sky130_fd_sc_hd__or2_2
*I *1302:Q O *D sky130_fd_sc_hd__dfxtp_2
*CAP
1 *1450:A 0.000139859
2 *1168:A 0.000251534
3 *1302:Q 0
4 *257:6 0.000391394
5 *1168:A *1302:D 0
6 *1168:A *1382:A 0
7 *1450:A *1302:D 0
8 rx_data[5] *1450:A 7.35813e-05
9 *1168:B *1168:A 8.8266e-05
10 *1449:A *1168:A 0
11 *1449:A *1450:A 0
*RES
1 *1302:Q *257:6 3.6 
2 *257:6 *1168:A 7.995 
3 *257:6 *1450:A 6.12 
*END

*D_NET *258 0.00219983
*CONN
*I *1451:A I *D sky130_fd_sc_hd__clkdlybuf4s25_1
*I *1170:A I *D sky130_fd_sc_hd__or2_2
*I *1303:Q O *D sky130_fd_sc_hd__dfxtp_2
*CAP
1 *1451:A 0.000224391
2 *1170:A 0.000134401
3 *1303:Q 0.000227447
4 *258:8 0.000586239
5 *1170:A *1206:B1_N 0
6 *1170:A *1303:D 1.94805e-05
7 *1170:A *1385:A 0.00010131
8 *1451:A *1303:D 5.42251e-05
9 *1451:A *1385:A 6.10941e-05
10 *1196:A1 *1170:A 0
11 *1299:CLK *1170:A 0
12 *1313:D *1170:A 0
13 *1386:A *1451:A 0.000393029
14 *159:89 *1451:A 4.60584e-05
15 *247:64 *258:8 0.000352156
*RES
1 *1303:Q *258:8 6.81 
2 *258:8 *1170:A 6.51 
3 *258:8 *1451:A 9.225 
*END

*D_NET *259 0.000679848
*CONN
*I *1172:B I *D sky130_fd_sc_hd__or2_2
*I *1436:X O *D sky130_fd_sc_hd__clkdlybuf4s25_1
*CAP
1 *1172:B 0.000292827
2 *1436:X 0.000292827
3 *1172:B *273:14 0
4 *1172:B *273:35 2.97561e-05
5 *1304:CLK *1172:B 5.21714e-05
6 *1326:CLK *1172:B 1.22676e-05
*RES
1 *1436:X *1172:B 11.76 
*END

*D_NET *260 0.000821388
*CONN
*I *1452:A I *D sky130_fd_sc_hd__clkdlybuf4s25_1
*I *1295:Q O *D sky130_fd_sc_hd__dfxtp_2
*CAP
1 *1452:A 0.000310451
2 *1295:Q 0.000310451
3 *1452:A *1422:A 0
4 rx_valid *1452:A 0.000200486
*RES
1 *1295:Q *1452:A 12.795 
*END

*D_NET *261 0.00128811
*CONN
*I *1453:A I *D sky130_fd_sc_hd__clkdlybuf4s25_1
*I *1083:X O *D sky130_fd_sc_hd__o21a_2
*CAP
1 *1453:A 0.00062783
2 *1083:X 0.00062783
3 *1453:A *1259:A 0
4 *1453:A *1262:A1 4.9253e-06
5 *1453:A *265:41 0
6 *1259:B *1453:A 2.75229e-05
7 *248:10 *1453:A 0
*RES
1 *1083:X *1453:A 14.865 
*END

*D_NET *262 0.00900363
*CONN
*I *1271:A3 I *D sky130_fd_sc_hd__o311a_2
*I *1273:A3 I *D sky130_fd_sc_hd__o311a_2
*I *1365:A I *D sky130_fd_sc_hd__clkdlybuf4s25_1
*I *1084:X O *D sky130_fd_sc_hd__or2_2
*CAP
1 *1271:A3 0.000534477
2 *1273:A3 1.17428e-05
3 *1365:A 0
4 *1084:X 0.000216
5 *262:33 0.00364778
6 *262:10 0.00331756
7 *1271:A3 *1269:A3 8.23457e-05
8 *262:10 *387:18 2.05056e-05
9 *1213:B *262:33 1.26305e-05
10 *1265:A2 *262:10 0.000124895
11 *1271:A2 *1271:A3 0.000119406
12 *1273:B1 *1271:A3 3.78912e-05
13 *1273:B1 *1273:A3 1.88602e-05
14 *1281:A1 *1271:A3 0
15 *1339:D *1271:A3 2.97004e-06
16 *3:30 *262:33 3.33518e-05
17 *102:107 *1271:A3 0.000379501
18 *103:10 *262:10 0.000246683
19 *103:10 *262:33 1.92979e-05
20 *195:39 *262:33 3.86648e-06
21 *196:51 *262:10 0.000162332
22 *196:51 *262:33 1.15399e-05
*RES
1 *1084:X *262:10 8.355 
2 *262:10 *1365:A 3.6 
3 *262:10 *262:33 6.89383 
4 *262:33 *1273:A3 3.8325 
5 *262:33 *1271:A3 10.7625 
*END

*D_NET *263 0.0122322
*CONN
*I *1238:B I *D sky130_fd_sc_hd__and3b_2
*I *1246:A I *D sky130_fd_sc_hd__and3_2
*I *1217:B1_N I *D sky130_fd_sc_hd__a21boi_2
*I *1232:B I *D sky130_fd_sc_hd__and3b_2
*I *1220:A I *D sky130_fd_sc_hd__and3_2
*I *1215:B I *D sky130_fd_sc_hd__and2b_2
*I *1223:C I *D sky130_fd_sc_hd__and3b_2
*I *1229:C I *D sky130_fd_sc_hd__and3b_2
*I *1226:A I *D sky130_fd_sc_hd__and3_2
*I *1235:A I *D sky130_fd_sc_hd__and3_2
*I *1363:X O *D sky130_fd_sc_hd__clkdlybuf4s25_1
*CAP
1 *1238:B 0.00028208
2 *1246:A 0.000534212
3 *1217:B1_N 0.000580998
4 *1232:B 0
5 *1220:A 5.50526e-05
6 *1215:B 0.000132783
7 *1223:C 0
8 *1229:C 0
9 *1226:A 0.000305259
10 *1235:A 1.88809e-05
11 *1363:X 0.00117397
12 *263:113 0.00129881
13 *263:68 0.000464118
14 *263:61 0.000684529
15 *263:39 0.000402736
16 *263:33 0.000835636
17 *263:29 0.000548507
18 *263:23 0.00120074
19 *263:12 0.00111147
20 *1215:B *1215:A_N 0
21 *1217:B1_N *1423:A 6.14504e-05
22 *1217:B1_N *380:8 0.000310383
23 *1226:A *1225:A 9.91257e-05
24 *1226:A *1228:A1 8.9864e-05
25 *263:12 *1236:B1 0.000113891
26 *263:23 *1234:A 3.09088e-05
27 *263:33 *1421:A 0
28 *263:33 *378:10 0
29 *263:39 *1228:A1 2.97674e-05
30 *263:39 *378:10 0
31 *263:61 *1228:A1 0.000141308
32 *263:61 *1228:B1 0.000233565
33 *263:113 *1236:B1 2.71075e-05
34 *263:113 *382:10 0
35 *1220:C *1215:B 0
36 *1225:B *263:39 0
37 *1226:C *1226:A 3.54536e-05
38 *1229:A_N *263:33 0
39 *1229:A_N *263:61 0.000124895
40 *1229:B *263:61 6.6564e-05
41 *1230:B *263:33 0
42 *1231:D *263:29 0
43 *1231:D *263:33 0
44 *1232:C *263:29 2.85821e-05
45 *1235:C *1235:A 5.4155e-06
46 *1235:C *263:12 5.30673e-05
47 *1235:C *263:23 3.00381e-05
48 *1238:A_N *1238:B 1.1392e-05
49 *1239:D *263:113 5.05521e-05
50 *1241:B1_N *1238:B 0
51 *1241:B1_N *263:113 0
52 *1243:A2 *1246:A 0.000161467
53 *1243:B1_N *1246:A 7.60965e-05
54 *1321:D *1215:B 0
55 *1323:D *263:33 6.23288e-05
56 *1323:D *263:61 0.0001249
57 *1324:D *1217:B1_N 0.000154698
58 *1324:D *263:29 6.28765e-05
59 *1325:D *263:12 5.07293e-05
60 *1363:A *263:113 5.51158e-05
61 *197:8 *1238:B 3.77199e-05
62 *197:8 *263:113 5.21714e-05
63 *201:14 *263:61 0.000131543
64 *201:28 *263:39 0
65 *208:6 *263:23 3.41911e-05
66 *208:12 *263:23 8.58339e-06
67 *208:54 *263:23 4.66826e-05
68 *240:47 *1217:B1_N 0
69 *240:47 *263:29 0
70 *240:47 *263:33 0
71 *240:51 *263:33 0
*RES
1 *1363:X *263:12 16.385 
2 *263:12 *1235:A 1.96 
3 *263:12 *263:23 6.935 
4 *263:23 *263:29 4.94 
5 *263:29 *263:33 7.46 
6 *263:33 *263:39 3.35375 
7 *263:39 *1226:A 5.82625 
8 *263:39 *1229:C 1.6 
9 *263:33 *263:61 11.1388 
10 *263:61 *1223:C 1.6 
11 *263:61 *263:68 3.86625 
12 *263:68 *1215:B 7.745 
13 *263:68 *1220:A 2.395 
14 *263:29 *1232:B 1.6 
15 *263:23 *1217:B1_N 14.115 
16 *1363:X *263:113 10.32 
17 *263:113 *1246:A 11.64 
18 *263:113 *1238:B 7.245 
*END

*D_NET *264 0.0128511
*CONN
*I *1152:B1 I *D sky130_fd_sc_hd__o311a_2
*I *1125:A I *D sky130_fd_sc_hd__inv_2
*I *1130:B1 I *D sky130_fd_sc_hd__o21ai_2
*I *1140:B1 I *D sky130_fd_sc_hd__o21ai_2
*I *1142:B1 I *D sky130_fd_sc_hd__o21ai_2
*I *1139:B I *D sky130_fd_sc_hd__and3b_2
*I *1136:B1 I *D sky130_fd_sc_hd__o21ai_2
*I *1134:B1 I *D sky130_fd_sc_hd__o21ai_2
*I *1133:B I *D sky130_fd_sc_hd__and3b_2
*I *1129:B I *D sky130_fd_sc_hd__and3_2
*I *1364:X O *D sky130_fd_sc_hd__clkdlybuf4s25_1
*CAP
1 *1152:B1 0
2 *1125:A 0
3 *1130:B1 0
4 *1140:B1 0.000512154
5 *1142:B1 5.24499e-05
6 *1139:B 0.000391003
7 *1136:B1 0.000352091
8 *1134:B1 0
9 *1133:B 0.000313637
10 *1129:B 3.83473e-05
11 *1364:X 0.000191556
12 *264:98 0.000443453
13 *264:96 0.00107257
14 *264:69 0.00126582
15 *264:58 0.000783089
16 *264:41 0.000856025
17 *264:39 0.000446926
18 *264:33 0.000503812
19 *264:22 0.000473165
20 *264:12 0.00045687
21 *1129:B *1122:A 1.91597e-05
22 *1136:B1 *1119:B 0
23 *1136:B1 *350:37 0
24 *1139:B *1119:A 0
25 *1139:B *349:12 4.40812e-05
26 *1140:B1 *1141:A1 1.4389e-05
27 *1142:B1 *1142:A1 1.01661e-05
28 *264:12 *1152:A2 0.000296088
29 *264:12 *370:26 0.000158072
30 *264:22 *1122:A 0.000163199
31 *264:22 *1152:A1 0.000168213
32 *264:22 *1152:A2 4.99619e-05
33 *264:33 *342:19 0.000123821
34 *264:39 *1121:C 0
35 *264:39 *1126:A1 7.21262e-05
36 *264:39 *342:19 2.98644e-05
37 *264:39 *342:21 0.000157418
38 *264:58 *286:6 8.65961e-05
39 *264:58 *352:25 2.8185e-05
40 *264:69 *1089:C 0
41 *264:69 *1384:A 8.65961e-05
42 *264:69 *286:6 7.66083e-05
43 *264:69 *350:37 0
44 *264:69 *351:8 0
45 *264:96 *349:26 5.40939e-05
46 *1119:C *264:96 4.66108e-05
47 *1119:D *1139:B 0
48 *1120:C *264:58 1.91597e-05
49 *1122:B *264:33 0
50 *1126:B1 *264:39 0.000136052
51 *1129:C *264:33 9.5433e-05
52 *1130:A2 *1133:B 0
53 *1130:A2 *264:39 0
54 *1130:A2 *264:41 0
55 *1131:B *264:39 0
56 *1133:A_N *1133:B 0
57 *1134:A2 *264:58 0.000227261
58 *1137:B *1136:B1 2.0514e-05
59 *1138:A2 *264:96 5.05521e-05
60 *1139:C *1139:B 0
61 *1141:B1 *1140:B1 8.86179e-05
62 *1142:A2 *264:96 2.96426e-05
63 *1143:A *1140:B1 1.10435e-05
64 *1143:B *1142:B1 5.53249e-06
65 *1152:C1 *264:12 5.53249e-06
66 *1155:C *264:12 1.52776e-05
67 *1283:D *264:22 8.65905e-05
68 *1283:D *264:33 6.00423e-05
69 *1284:D *264:39 3.32132e-05
70 *1285:CLK *1133:B 0
71 *1285:D *1133:B 7.89689e-05
72 *1287:D *1136:B1 8.79373e-05
73 *1289:D *1140:B1 5.13155e-05
74 *1404:A *264:12 0.000250609
75 *1404:A *264:22 2.54557e-05
76 *124:18 *264:22 4.99619e-05
77 *124:30 *264:22 0.000416015
78 *133:14 *1142:B1 0
79 *133:14 *264:96 7.06865e-05
80 *133:16 *264:96 7.40446e-05
81 *134:8 *1140:B1 0.000354725
82 *134:8 *264:96 8.65905e-05
83 *134:12 *1140:B1 0.000142061
84 *135:8 *1139:B 0
85 *135:8 *264:96 4.94404e-05
86 *136:10 *1136:B1 0
87 *136:10 *264:96 4.87317e-05
88 *137:10 *1136:B1 4.99619e-05
89 *137:20 *1136:B1 0.000134269
90 *137:48 *264:58 8.65961e-05
91 *138:8 *264:58 7.10578e-05
92 *242:61 *1133:B 0
93 *242:61 *264:39 0
94 *242:61 *264:41 0
*RES
1 *1364:X *264:12 10.505 
2 *264:12 *264:22 7.845 
3 *264:22 *1129:B 2.05 
4 *264:22 *264:33 5.42 
5 *264:33 *264:39 7.29 
6 *264:39 *264:41 1.89 
7 *264:41 *1133:B 9.06 
8 *264:41 *264:58 10.16 
9 *264:58 *1134:B1 1.6 
10 *264:58 *264:69 7.79 
11 *264:69 *1136:B1 9.9 
12 *264:69 *264:96 14.925 
13 *264:96 *264:98 2 
14 *264:98 *1139:B 9.345 
15 *264:98 *1142:B1 4.47 
16 *264:96 *1140:B1 14.795 
17 *264:39 *1130:B1 3.6 
18 *264:33 *1125:A 3.6 
19 *264:12 *1152:B1 1.6 
*END

*D_NET *265 0.0141297
*CONN
*I *1260:A2 I *D sky130_fd_sc_hd__o211a_2
*I *1281:A3 I *D sky130_fd_sc_hd__o311a_2
*I *1269:A3 I *D sky130_fd_sc_hd__o311a_2
*I *1267:A3 I *D sky130_fd_sc_hd__o311a_2
*I *1277:A3 I *D sky130_fd_sc_hd__o311a_2
*I *1249:B I *D sky130_fd_sc_hd__nor2_2
*I *1454:A I *D sky130_fd_sc_hd__clkdlybuf4s25_1
*I *1279:A3 I *D sky130_fd_sc_hd__o311a_2
*I *1275:A3 I *D sky130_fd_sc_hd__o311a_2
*I *1213:A I *D sky130_fd_sc_hd__nand2_2
*I *1365:X O *D sky130_fd_sc_hd__clkdlybuf4s25_1
*CAP
1 *1260:A2 0
2 *1281:A3 0.000219763
3 *1269:A3 0.00022245
4 *1267:A3 0.000176121
5 *1277:A3 2.52709e-05
6 *1249:B 0
7 *1454:A 4.29544e-05
8 *1279:A3 2.00069e-05
9 *1275:A3 2.89988e-05
10 *1213:A 0.000122864
11 *1365:X 0.000141463
12 *265:108 0.00123619
13 *265:93 0.000959351
14 *265:82 0.000162631
15 *265:69 0.000182675
16 *265:65 0.000447219
17 *265:54 0.000503828
18 *265:41 0.00086073
19 *265:25 0.00100273
20 *265:8 0.000765242
21 *1267:A3 *1079:A0 8.82557e-05
22 *1267:A3 *1267:A1 0.00024787
23 *1267:A3 *1268:A 3.9442e-05
24 *1269:A3 *1267:A1 0.000271579
25 *1269:A3 *1268:A 0.000239283
26 *1281:A3 *1273:A1 0
27 *1281:A3 *395:10 4.94404e-05
28 *1454:A *1277:A1 8.15943e-05
29 *265:54 *1275:A1 8.08153e-06
30 *265:69 *272:57 8.09021e-06
31 *265:93 *272:57 1.79483e-05
32 *265:108 *1278:A 4.82919e-05
33 *265:108 *268:79 0.000699977
34 tx_busy *265:54 0
35 *1083:B1 *265:25 0.000183731
36 *1213:B *1213:A 4.18603e-06
37 *1249:A *1277:A3 2.24423e-05
38 *1249:A *265:93 3.56638e-05
39 *1260:A1 *265:25 7.25921e-06
40 *1260:A1 *265:41 0.000208484
41 *1260:B1 *265:41 9.50342e-06
42 *1260:C1 *265:25 0.000123596
43 *1262:B1_N *265:41 4.41506e-05
44 *1267:A2 *1267:A3 0.00023301
45 *1267:A2 *265:108 5.28702e-05
46 *1269:B1 *1269:A3 5.16348e-05
47 *1271:A2 *1269:A3 8.23457e-05
48 *1271:A3 *1269:A3 8.23457e-05
49 *1277:B1 *1277:A3 9.50342e-06
50 *1279:A2 *1279:A3 8.65905e-05
51 *1279:A2 *265:54 0.000169534
52 *1279:A2 *265:65 7.40446e-05
53 *1279:A2 *265:69 0
54 *1279:B1 *1277:A3 0
55 *1279:B1 *1279:A3 4.82863e-05
56 *1279:B1 *265:65 0.000391354
57 *1279:B1 *265:93 0
58 *1281:B1 *1281:A3 0.000550826
59 *1281:B1 *265:69 0.00011852
60 *1281:B1 *265:82 8.65905e-05
61 *1281:B1 *265:93 1.91597e-05
62 *1297:CLK *1267:A3 7.00889e-06
63 *1334:D *265:41 0.000163019
64 *1335:CLK *265:41 0
65 *1341:CLK *1275:A3 4.66108e-05
66 *1435:A *265:54 0
67 *1442:A *265:54 0
68 *1453:A *265:41 0
69 *102:25 *265:54 0.000160521
70 *102:92 *1279:A3 7.00889e-06
71 *102:100 *1281:A3 0.000112389
72 *103:10 *1213:A 0.000227748
73 *103:10 *265:25 8.59365e-05
74 *105:6 *265:8 7.87074e-05
75 *105:10 *1213:A 0
76 *105:10 *265:25 0
77 *105:21 *265:25 0
78 *195:39 *1213:A 0
79 *196:51 *1213:A 9.29751e-06
80 *219:10 *1277:A3 0
81 *219:67 *1267:A3 0
82 *225:8 *265:25 0.000613476
83 *245:14 *265:108 0.000120655
84 *248:18 *265:25 0.000271303
85 *250:10 *265:41 0.000282697
86 *250:10 *265:54 0.00032732
*RES
1 *1365:X *265:8 5.43 
2 *265:8 *1213:A 6.51 
3 *265:8 *265:25 13.475 
4 *265:25 *265:41 15.9 
5 *265:41 *1275:A3 4.05 
6 *265:41 *265:54 10.265 
7 *265:54 *1279:A3 2.395 
8 *265:54 *265:65 5.555 
9 *265:65 *265:69 3.635 
10 *265:69 *1454:A 2.71 
11 *265:69 *265:82 1.5 
12 *265:82 *1249:B 1.6 
13 *265:82 *265:93 3.83 
14 *265:93 *1277:A3 4.215 
15 *265:93 *265:108 14.8 
16 *265:108 *1267:A3 8.775 
17 *265:108 *1269:A3 10.365 
18 *265:65 *1281:A3 10.08 
19 *265:25 *1260:A2 1.6 
*END

*D_NET *266 0.0125131
*CONN
*I *1105:A_N I *D sky130_fd_sc_hd__and3b_2
*I *1193:A1 I *D sky130_fd_sc_hd__o311a_2
*I *1190:C I *D sky130_fd_sc_hd__or4_2
*I *1154:A I *D sky130_fd_sc_hd__and3_2
*I *1155:A I *D sky130_fd_sc_hd__nand3_2
*I *1203:A1 I *D sky130_fd_sc_hd__o311a_2
*I *1153:A I *D sky130_fd_sc_hd__and4_2
*I *1112:A1 I *D sky130_fd_sc_hd__a31o_2
*I *1104:A_N I *D sky130_fd_sc_hd__nand2b_2
*I *1109:A I *D sky130_fd_sc_hd__or2_2
*I *1366:X O *D sky130_fd_sc_hd__clkdlybuf4s25_1
*CAP
1 *1105:A_N 2.23441e-05
2 *1193:A1 0.000456312
3 *1190:C 0.000440202
4 *1154:A 0
5 *1155:A 6.0216e-05
6 *1203:A1 0
7 *1153:A 0.000322153
8 *1112:A1 4.95314e-05
9 *1104:A_N 0
10 *1109:A 0.000154568
11 *1366:X 4.64024e-05
12 *266:117 0.000629103
13 *266:102 0.000560155
14 *266:90 0.000789702
15 *266:81 0.000521761
16 *266:75 0.000568156
17 *266:38 0.000730395
18 *266:12 0.000970703
19 *266:4 0.00117485
20 *1109:A *1074:A 8.53113e-06
21 *1112:A1 *1152:A2 6.45317e-05
22 *1112:A1 *300:42 9.50342e-06
23 *1153:A *1151:A1 0.000135828
24 *1153:A *1187:A 4.66108e-05
25 *1153:A *370:22 9.14049e-05
26 *1155:A *1099:A2 0.000200615
27 *1190:C *271:76 0
28 *1193:A1 *1167:C1 3.61793e-05
29 *1193:A1 *268:23 0
30 *266:12 *1104:B 0.000240847
31 *266:12 *1366:A 4.58257e-05
32 *266:12 *368:6 0.000353831
33 *266:38 *1108:A 3.86529e-05
34 *266:38 *1151:A1 1.53809e-05
35 *266:38 *368:6 4.99619e-05
36 *266:38 *368:17 0.000110673
37 *266:75 *1105:C 2.66935e-05
38 *266:81 *1105:C 1.43717e-05
39 *266:81 *1203:C1 0
40 *266:81 *1367:A 0
41 *266:102 *1099:A1 1.07797e-05
42 *266:102 *1099:A2 2.18022e-05
43 *266:102 *1203:C1 1.73877e-05
44 *266:117 *1154:B 0.000126058
45 *266:117 *271:76 0
46 *1099:A3 *266:102 4.54965e-05
47 *1108:B *266:38 4.43871e-06
48 *1110:B1 *266:75 3.68682e-05
49 *1110:B1 *266:81 0
50 *1112:A3 *266:38 8.88108e-06
51 *1154:C *1190:C 4.184e-05
52 *1154:C *266:117 6.06374e-05
53 *1155:C *1112:A1 0.00011852
54 *1155:C *1155:A 4.82919e-05
55 *1155:C *266:117 0.000265471
56 *1176:B1 *1153:A 4.66108e-05
57 *1190:D *1190:C 3.99834e-05
58 *1203:A2 *1193:A1 0
59 *1203:A2 *266:102 0.000263924
60 *1203:A3 *266:81 1.73877e-05
61 *1203:B1 *1193:A1 5.20968e-05
62 *1203:B1 *266:81 5.53249e-06
63 *1203:B1 *266:90 3.05295e-05
64 *1311:D *1193:A1 5.21046e-05
65 *1344:CLK *266:38 3.72916e-05
66 *1344:D *266:38 1.33293e-05
67 *1345:CLK *1109:A 0.00049506
68 *1345:CLK *266:12 4.47125e-05
69 *1347:CLK *266:81 0.000162318
70 *1347:D *266:102 5.53249e-06
71 *1449:A *1193:A1 0.000134389
72 *127:23 *1105:A_N 2.75229e-05
73 *127:23 *266:81 0.000117116
74 *158:16 *1190:C 0.000100441
75 *159:10 *1193:A1 0
76 *159:10 *266:81 0
77 *159:10 *266:90 0
78 *159:10 *266:102 0.000195476
79 *159:10 *266:117 0.000224698
80 *179:45 *1193:A1 0.000205384
81 *239:122 *1153:A 0
82 *246:56 *1193:A1 0
83 *246:56 *266:102 0.000144606
84 *246:76 *1193:A1 0
85 *248:29 *1109:A 5.53249e-06
86 *248:33 *1109:A 0.000274473
87 *256:10 *1193:A1 2.46089e-05
*RES
1 *1366:X *266:4 1.6 
2 *266:4 *266:12 11.535 
3 *266:12 *1109:A 11.315 
4 *266:12 *1104:A_N 1.6 
5 *266:4 *266:38 8.875 
6 *266:38 *1112:A1 6.98 
7 *266:38 *1153:A 10.385 
8 *1366:X *266:75 6.725 
9 *266:75 *266:81 10.565 
10 *266:81 *1203:A1 3.6 
11 *266:81 *266:90 0.615 
12 *266:90 *266:102 11.82 
13 *266:102 *1155:A 4.045 
14 *266:102 *266:117 5.565 
15 *266:117 *1154:A 1.6 
16 *266:117 *1190:C 7.51 
17 *266:90 *1193:A1 14.04 
18 *266:75 *1105:A_N 2.05 
*END

*D_NET *267 0.00542937
*CONN
*I *1195:A1 I *D sky130_fd_sc_hd__o311a_2
*I *1197:A1 I *D sky130_fd_sc_hd__o311a_2
*I *1200:C I *D sky130_fd_sc_hd__or4_2
*I *1207:A1 I *D sky130_fd_sc_hd__o311a_2
*I *1205:A1 I *D sky130_fd_sc_hd__o311a_2
*I *1367:X O *D sky130_fd_sc_hd__clkdlybuf4s25_1
*CAP
1 *1195:A1 0
2 *1197:A1 7.83476e-05
3 *1200:C 0.000297314
4 *1207:A1 0
5 *1205:A1 0.000166266
6 *1367:X 0
7 *267:42 0.000648977
8 *267:31 0.00100005
9 *267:17 0.000886836
10 *267:4 0.000326368
11 *1197:A1 *269:57 4.66108e-05
12 *1200:C *1199:B 0
13 *1200:C *269:57 0
14 *1200:C *353:73 0
15 *1205:A1 *1205:C1 8.65961e-05
16 *267:17 *1205:C1 0.000150119
17 *267:17 *1367:A 0.00015639
18 *267:31 *1205:C1 0.000161529
19 *267:31 *1206:B1_N 0
20 *267:31 *269:108 0
21 *1194:A2 *267:31 4.70919e-05
22 *1195:A2 *267:17 3.26889e-05
23 *1195:B1 *267:31 0.000198051
24 *1196:A1 *1200:C 0
25 *1205:A2 *1205:A1 1.33293e-05
26 *1205:A3 *1205:A1 4.70919e-05
27 *1206:A1 *267:42 9.53428e-06
28 *1206:A2 *1200:C 4.13171e-05
29 *1206:A2 *267:31 0
30 *1207:A2 *267:42 7.67345e-05
31 *1207:B1 *267:42 0.000146674
32 *1313:D *1197:A1 5.30673e-05
33 *1449:A *267:31 5.39961e-05
34 *119:14 *1197:A1 0.000112631
35 *119:14 *267:42 1.47256e-05
36 *172:21 *267:31 5.44586e-05
37 *172:27 *267:17 0.000234685
38 *172:27 *267:31 1.33293e-05
39 *179:60 *267:31 5.53249e-06
40 *185:47 *1200:C 9.24049e-05
41 *185:58 *1200:C 0.000176629
42 *185:58 *267:31 0
43 *247:19 *267:31 0
*RES
1 *1367:X *267:4 1.6 
2 *267:4 *1205:A1 4.48 
3 *267:4 *267:17 4.26 
4 *267:17 *267:31 19.925 
5 *267:31 *1207:A1 1.6 
6 *267:31 *267:42 4.965 
7 *267:42 *1200:C 11.825 
8 *267:42 *1197:A1 3.775 
9 *267:17 *1195:A1 1.6 
*END

*D_NET *268 0.0127618
*CONN
*I *1159:C1 I *D sky130_fd_sc_hd__o211a_2
*I *1169:C1 I *D sky130_fd_sc_hd__o211a_2
*I *1271:C1 I *D sky130_fd_sc_hd__o311a_2
*I *1269:C1 I *D sky130_fd_sc_hd__o311a_2
*I *1277:C1 I *D sky130_fd_sc_hd__o311a_2
*I *1275:C1 I *D sky130_fd_sc_hd__o311a_2
*I *1259:A I *D sky130_fd_sc_hd__and3_2
*I *1273:C1 I *D sky130_fd_sc_hd__o311a_2
*I *1267:C1 I *D sky130_fd_sc_hd__o311a_2
*I *1167:C1 I *D sky130_fd_sc_hd__o211a_2
*I *1368:X O *D sky130_fd_sc_hd__clkdlybuf4s25_1
*CAP
1 *1159:C1 0.00010268
2 *1169:C1 0
3 *1271:C1 0
4 *1269:C1 6.95262e-06
5 *1277:C1 0
6 *1275:C1 0.000364956
7 *1259:A 0.000256342
8 *1273:C1 7.5977e-05
9 *1267:C1 2.83764e-05
10 *1167:C1 5.86188e-05
11 *1368:X 0.000208497
12 *268:112 2.47279e-05
13 *268:83 0.000869061
14 *268:79 0.000583266
15 *268:58 0.000693047
16 *268:50 0.000577961
17 *268:46 0.000644448
18 *268:31 0.000797537
19 *268:23 0.00073483
20 *268:8 0.000495933
21 *1267:C1 *1079:A0 0.000164874
22 *1273:C1 *1269:A1 0.000146857
23 *1275:C1 *1274:A 0.000124895
24 *268:8 *272:12 0.000102913
25 *268:31 *1079:A0 0.000113237
26 *268:31 *1192:B1_N 0.000153816
27 *268:31 *1297:D 0.000130317
28 *268:31 *1378:A 8.23457e-05
29 *268:31 *279:6 4.82863e-05
30 *268:46 *1204:B1_N 0
31 *268:46 *1270:A 0.000114492
32 *268:46 *1415:A 7.16437e-05
33 *268:50 *1271:A1 4.99619e-05
34 *268:58 *1269:A1 0.00010408
35 *268:79 *1081:A1 0.00013521
36 *268:79 *1081:S1 0
37 *268:79 *1278:A 4.99619e-05
38 *268:79 *390:12 0.000305658
39 *268:83 *1276:A 0
40 *1082:A1 *268:79 0.000269178
41 *1159:B1 *1159:C1 4.66108e-05
42 *1166:B *1159:C1 0.000225175
43 *1166:B *268:23 0.000363653
44 *1167:B1 *1167:C1 7.89611e-05
45 *1167:B1 *268:23 0.000144721
46 *1169:A2 *268:46 7.89689e-05
47 *1169:B1 *268:50 1.85674e-05
48 *1193:A1 *1167:C1 3.61793e-05
49 *1193:A1 *268:23 0
50 *1259:C *1259:A 9.50342e-06
51 *1267:A2 *268:79 0.000223401
52 *1267:B1 *268:46 0
53 *1271:A2 *1269:C1 4.82863e-05
54 *1271:A2 *268:50 8.05167e-05
55 *1271:A2 *268:58 5.36372e-05
56 *1274:B *1275:C1 0.000136403
57 *1275:B1 *1275:C1 8.8266e-05
58 *1277:B1 *268:83 7.63204e-05
59 *1297:CLK *1267:C1 4.58166e-05
60 *1297:CLK *268:31 0.0001477
61 *1316:D *268:46 0
62 *1337:D *268:79 0.00031712
63 *1341:CLK *1275:C1 0.000137828
64 *1341:D *1275:C1 7.36892e-05
65 *1341:D *268:83 0
66 *1438:A *268:79 1.1561e-05
67 *1445:A *268:46 0.000245718
68 *1449:A *268:23 4.24292e-06
69 *1453:A *1259:A 0
70 *102:25 *1275:C1 0
71 *102:107 *268:58 6.07575e-06
72 *158:67 *1159:C1 5.83121e-06
73 *159:27 *1159:C1 0.000147467
74 *159:27 *268:23 0.000243723
75 *159:38 *1159:C1 5.53249e-06
76 *219:12 *268:83 0
77 *219:16 *1259:A 0
78 *219:16 *268:83 0
79 *219:67 *268:79 0.000106536
80 *248:10 *1259:A 3.68596e-05
81 *252:10 *1267:C1 3.00381e-05
82 *252:10 *268:46 6.10014e-05
83 *256:10 *268:23 3.49945e-05
84 *265:108 *268:79 0.000699977
*RES
1 *1368:X *268:8 6.12 
2 *268:8 *1167:C1 5.235 
3 *268:8 *268:23 7.035 
4 *268:23 *268:31 10.16 
5 *268:31 *1267:C1 3.085 
6 *268:31 *268:46 12.715 
7 *268:46 *268:50 4.26 
8 *268:50 *268:58 4.035 
9 *268:58 *1273:C1 3.1 
10 *268:58 *268:79 17.275 
11 *268:79 *268:83 5.675 
12 *268:83 *1259:A 8.04 
13 *268:83 *1275:C1 9.6 
14 *268:79 *1277:C1 1.6 
15 *268:50 *268:112 0.36 
16 *268:112 *1269:C1 2.05 
17 *268:112 *1271:C1 1.6 
18 *268:46 *1169:C1 1.6 
19 *268:23 *1159:C1 6.705 
*END

*D_NET *269 0.0131424
*CONN
*I *1171:C1 I *D sky130_fd_sc_hd__o211a_2
*I *1161:C1 I *D sky130_fd_sc_hd__o211a_2
*I *1205:C1 I *D sky130_fd_sc_hd__o311a_2
*I *1195:C1 I *D sky130_fd_sc_hd__o311a_2
*I *1163:C1 I *D sky130_fd_sc_hd__o211a_2
*I *1165:C1 I *D sky130_fd_sc_hd__o211a_2
*I *1197:C1 I *D sky130_fd_sc_hd__o311a_2
*I *1201:C1 I *D sky130_fd_sc_hd__o211a_2
*I *1183:A I *D sky130_fd_sc_hd__and2_2
*I *1193:C1 I *D sky130_fd_sc_hd__o311a_2
*I *1369:X O *D sky130_fd_sc_hd__clkdlybuf4s25_1
*CAP
1 *1171:C1 0.000500714
2 *1161:C1 0
3 *1205:C1 0.000351738
4 *1195:C1 9.71884e-06
5 *1163:C1 0.000283681
6 *1165:C1 1.90984e-05
7 *1197:C1 0
8 *1201:C1 0
9 *1183:A 3.55506e-05
10 *1193:C1 4.17243e-05
11 *1369:X 0.000235299
12 *269:129 0.000788907
13 *269:108 0.00068748
14 *269:97 0.000292566
15 *269:66 0.00053982
16 *269:57 0.000583358
17 *269:38 0.000956579
18 *269:25 0.00118238
19 *269:4 0.000578291
20 *1171:C1 *289:10 8.65961e-05
21 *1183:A *353:40 0
22 *1205:C1 *1367:A 8.63479e-05
23 *269:38 *1178:A1 7.35813e-05
24 *269:38 *1199:A 8.53113e-06
25 *269:38 *353:40 3.79945e-05
26 *269:38 *353:42 5.05437e-05
27 *269:38 *354:75 0.000114492
28 *269:57 *1199:A 0.000200648
29 *269:66 *1165:A1 0.000152662
30 *269:97 *1194:B1_N 4.43871e-06
31 *269:97 *1207:C1 0
32 *269:108 *1194:B1_N 3.67779e-05
33 *269:129 *1194:B1_N 9.68709e-05
34 rx_data[3] *1163:C1 8.49205e-05
35 rx_data[3] *269:66 0.000570045
36 rx_data[5] *1171:C1 4.43682e-05
37 *1162:A *1163:C1 0.000257005
38 *1163:B1 *1163:C1 7.89767e-05
39 *1165:A2 *1165:C1 4.00541e-06
40 *1165:A2 *269:66 2.49909e-05
41 *1171:B1 *1171:C1 1.85674e-05
42 *1193:A2 *1193:C1 2.75145e-05
43 *1193:A2 *269:97 7.35729e-05
44 *1194:A2 *1195:C1 4.82919e-05
45 *1195:B1 *1195:C1 4.82919e-05
46 *1196:A1 *269:57 1.57491e-05
47 *1197:A1 *269:57 4.66108e-05
48 *1197:A3 *269:57 0.000124895
49 *1200:C *269:57 0
50 *1205:A1 *1205:C1 8.65961e-05
51 *1205:A2 *1205:C1 0.000133583
52 *1205:A3 *1205:C1 7.60965e-05
53 *1308:CLK *269:25 0.000347034
54 *1308:D *269:25 8.50581e-05
55 *1313:D *269:57 5.90938e-05
56 *1446:A *1171:C1 0.000354725
57 *1449:A *1171:C1 5.92849e-05
58 *1449:A *269:129 0
59 *94:8 *269:25 1.04258e-05
60 *94:8 *269:38 2.8585e-06
61 *119:6 *269:38 0.000501915
62 *119:10 *269:38 0.000116165
63 *119:10 *269:57 0.000515085
64 *119:14 *269:57 8.40213e-05
65 *158:31 *1163:C1 4.31189e-05
66 *159:59 *269:129 0.00031916
67 *159:76 *1171:C1 0.000244183
68 *159:91 *1163:C1 0
69 *179:60 *269:97 0.000288203
70 *267:17 *1205:C1 0.000150119
71 *267:31 *1205:C1 0.000161529
72 *267:31 *269:108 0
*RES
1 *1369:X *269:4 1.6 
2 *269:4 *1193:C1 2.41 
3 *269:4 *269:25 10.96 
4 *269:25 *1183:A 2.215 
5 *269:25 *269:38 11.075 
6 *269:38 *1201:C1 3.6 
7 *269:38 *269:57 11.315 
8 *269:57 *1197:C1 1.6 
9 *269:57 *269:66 5.985 
10 *269:66 *1165:C1 1.96 
11 *269:66 *1163:C1 12.11 
12 *1369:X *269:97 8.16 
13 *269:97 *1195:C1 4.05 
14 *269:97 *269:108 0.87 
15 *269:108 *1205:C1 10.755 
16 *269:108 *269:129 6.51 
17 *269:129 *1161:C1 3.6 
18 *269:129 *1171:C1 13.635 
*END

*D_NET *270 0.00295105
*CONN
*I *1267:A1 I *D sky130_fd_sc_hd__o311a_2
*I *1437:X O *D sky130_fd_sc_hd__clkdlybuf4s25_1
*CAP
1 *1267:A1 0.000731055
2 *1437:X 0.000731055
3 *1267:A1 *1079:A0 0.000124007
4 *1267:A1 *1081:A0 0.000391608
5 *1267:A1 *1268:A 0
6 *1267:A1 *1417:A 6.28498e-05
7 *1267:A3 *1267:A1 0.00024787
8 *1269:A3 *1267:A1 0.000271579
9 *1269:B1 *1267:A1 3.09451e-05
10 *1437:A *1267:A1 5.05437e-05
11 *1438:A *1267:A1 0
12 *1439:A *1267:A1 0.000109101
13 *3:30 *1267:A1 1.54751e-05
14 *219:67 *1267:A1 0
15 *239:89 *1267:A1 0.000184966
*RES
1 *1437:X *1267:A1 23.385 
*END

*D_NET *271 0.01338
*CONN
*I *1157:C1 I *D sky130_fd_sc_hd__o211a_2
*I *1186:A I *D sky130_fd_sc_hd__and3_2
*I *1191:C1 I *D sky130_fd_sc_hd__o211a_2
*I *1095:B I *D sky130_fd_sc_hd__and3_2
*I *1178:C1 I *D sky130_fd_sc_hd__o211a_2
*I *1369:A I *D sky130_fd_sc_hd__clkdlybuf4s25_1
*I *1099:A2 I *D sky130_fd_sc_hd__a31o_2
*I *1124:B1 I *D sky130_fd_sc_hd__o21a_2
*I *1153:C I *D sky130_fd_sc_hd__and4_2
*I *1203:C1 I *D sky130_fd_sc_hd__o311a_2
*I *1370:X O *D sky130_fd_sc_hd__clkdlybuf4s25_1
*CAP
1 *1157:C1 0.00028836
2 *1186:A 0.000249057
3 *1191:C1 2.08101e-05
4 *1095:B 0
5 *1178:C1 0
6 *1369:A 0.000361017
7 *1099:A2 0.000239026
8 *1124:B1 0.000125549
9 *1153:C 0.000113776
10 *1203:C1 0.000374181
11 *1370:X 0
12 *271:118 0.000770811
13 *271:107 0.000626456
14 *271:76 0.000565799
15 *271:59 0.000590798
16 *271:49 0.00051689
17 *271:45 0.000966113
18 *271:34 0.000614744
19 *271:19 0.00100469
20 *271:4 0.000999866
21 *1124:B1 *1150:A1 0
22 *1124:B1 *1150:A2 1.43521e-05
23 *1124:B1 *368:69 1.82476e-05
24 *1124:B1 *368:93 7.24779e-05
25 *1153:C *1150:A1 0.00011379
26 *1153:C *1420:A 3.05238e-05
27 *1153:C *370:18 2.97204e-05
28 *1157:C1 *1157:A1 0.000208833
29 *1157:C1 *1191:A1 0.000319167
30 *1157:C1 *1389:A 4.82919e-05
31 *1186:A *355:16 5.21545e-05
32 *1203:C1 *1099:A1 0
33 *1369:A *1178:A1 0
34 *1369:A *354:28 7.10578e-05
35 *271:19 *1150:A1 9.60582e-07
36 *271:19 *1420:A 6.97034e-05
37 *271:19 *368:67 7.67415e-06
38 *271:34 *1150:A1 3.1562e-06
39 *271:45 *368:93 5.21627e-05
40 *271:45 *368:108 6.93101e-05
41 *271:59 *1155:B 7.23602e-05
42 *271:59 *370:91 7.06865e-05
43 *271:76 *1370:A 0
44 *271:118 *1191:A1 0.000294563
45 *1099:A3 *1099:A2 8.23457e-05
46 *1108:B *1203:C1 0
47 *1110:B1 *1203:C1 2.46089e-05
48 *1153:D *1153:C 1.52184e-05
49 *1155:A *1099:A2 0.000200615
50 *1155:C *1099:A2 4.60584e-05
51 *1155:C *271:59 3.96653e-05
52 *1157:B1 *1157:C1 3.57768e-05
53 *1157:B1 *1186:A 6.55328e-05
54 *1175:A2 *271:45 0
55 *1175:B1 *271:19 8.65905e-05
56 *1177:A *1369:A 3.25831e-05
57 *1177:A *271:76 0
58 *1178:B1 *271:76 7.70938e-05
59 *1179:B *1369:A 7.70828e-05
60 *1182:A2 *1369:A 0
61 *1182:A2 *271:76 2.16306e-05
62 *1183:B *1369:A 0
63 *1184:B1 *271:45 0
64 *1186:B *1186:A 1.7386e-05
65 *1186:C *1186:A 9.54399e-05
66 *1190:C *271:76 0
67 *1203:A3 *1203:C1 2.59981e-05
68 *1308:CLK *1369:A 8.49205e-05
69 *1308:D *1369:A 0
70 *1309:CLK *1157:C1 4.14369e-05
71 *1309:CLK *1186:A 0.000308055
72 *1310:D *1157:C1 0
73 *1347:D *1203:C1 0.000162325
74 *93:12 *1186:A 1.34361e-05
75 *94:10 *1369:A 0.00027064
76 *116:48 *271:45 9.82856e-06
77 *116:50 *271:49 1.34503e-05
78 *116:63 *271:49 8.73544e-05
79 *119:50 *1157:C1 0
80 *120:8 *271:45 0
81 *121:8 *271:49 0.000198195
82 *121:8 *271:59 2.75145e-05
83 *127:23 *1203:C1 5.30673e-05
84 *127:23 *271:19 0.000265326
85 *158:27 *1186:A 0
86 *169:18 *271:59 0.000155928
87 *169:18 *271:76 4.40812e-05
88 *170:8 *1153:C 0
89 *172:17 *1369:A 8.1552e-05
90 *185:8 *271:45 8.53113e-06
91 *185:8 *271:107 0.000245893
92 *185:12 *271:107 4.66108e-05
93 *185:38 *271:107 2.07184e-05
94 *246:12 *271:107 0.000114424
95 *246:12 *271:118 9.67665e-05
96 *266:81 *1203:C1 0
97 *266:102 *1099:A2 2.18022e-05
98 *266:102 *1203:C1 1.73877e-05
99 *266:117 *271:76 0
*RES
1 *1370:X *271:4 1.6 
2 *271:4 *1203:C1 12.11 
3 *271:4 *271:19 7.695 
4 *271:19 *1153:C 8.255 
5 *271:19 *271:34 4.865 
6 *271:34 *1124:B1 6.51 
7 *271:34 *271:45 4.185 
8 *271:45 *271:49 6.935 
9 *271:49 *271:59 7.135 
10 *271:59 *1099:A2 5.86 
11 *271:59 *271:76 8.035 
12 *271:76 *1369:A 13.505 
13 *271:76 *1178:C1 1.6 
14 *271:49 *1095:B 1.6 
15 *271:45 *271:107 8.72 
16 *271:107 *1191:C1 1.96 
17 *271:107 *271:118 6.245 
18 *271:118 *1186:A 9.51 
19 *271:118 *1157:C1 10.785 
*END

*D_NET *272 0.0131601
*CONN
*I *1281:C1 I *D sky130_fd_sc_hd__o311a_2
*I *1279:C1 I *D sky130_fd_sc_hd__o311a_2
*I *1207:C1 I *D sky130_fd_sc_hd__o311a_2
*I *1370:A I *D sky130_fd_sc_hd__clkdlybuf4s25_1
*I *1368:A I *D sky130_fd_sc_hd__clkdlybuf4s25_1
*I *1371:X O *D sky130_fd_sc_hd__clkdlybuf4s25_1
*CAP
1 *1281:C1 0.000220848
2 *1279:C1 0.000301336
3 *1207:C1 0.000667403
4 *1370:A 0.000388108
5 *1368:A 0
6 *1371:X 0
7 *272:57 0.00295456
8 *272:23 0.00145123
9 *272:12 0.000688236
10 *272:6 0.00272489
11 *1207:C1 *1179:A 0.000316813
12 *1207:C1 *1194:B1_N 0
13 *1207:C1 *1387:A 4.66826e-05
14 *1279:C1 *1081:A2 0.0001947
15 *1279:C1 *1408:A 0.000119279
16 *1281:C1 *396:10 9.32826e-05
17 *1370:A *1099:A1 0
18 *1370:A *1155:B 0
19 *1370:A *1430:A 0.000119227
20 *1370:A *370:16 0.00031209
21 *272:12 *1367:A 0
22 *272:23 *1179:A 7.00889e-06
23 *272:57 *1159:A1 0
24 *272:57 *1297:D 0
25 *272:57 *1367:A 0
26 *272:57 *396:10 1.94805e-05
27 *1099:A3 *1370:A 1.82563e-05
28 *1099:B1 *1370:A 7.36562e-05
29 *1108:B *1370:A 2.84137e-05
30 *1155:C *1370:A 0.000114913
31 *1174:A2 *1370:A 9.50342e-06
32 *1177:A *1207:C1 1.89685e-05
33 *1177:A *1370:A 0.000118504
34 *1181:A *1207:C1 0.000140912
35 *1193:A2 *1207:C1 0
36 *1249:A *272:57 1.22505e-05
37 *1272:B *272:57 0
38 *1279:B1 *1279:C1 0.000176132
39 *1279:B1 *272:57 0
40 *1281:B1 *1281:C1 0.000250412
41 *1281:B1 *272:57 0.000112105
42 *1308:CLK *1207:C1 0
43 *1377:A *272:12 9.428e-05
44 *1434:A *1281:C1 0
45 *94:10 *1207:C1 6.71226e-05
46 *158:63 *1207:C1 0.000312778
47 *169:18 *1370:A 0
48 *172:17 *1207:C1 0.000313022
49 *173:12 *1207:C1 1.26626e-05
50 *173:12 *1370:A 0.000114753
51 *173:36 *1207:C1 1.34361e-05
52 *179:60 *1207:C1 0
53 *185:66 *1207:C1 0.000155661
54 *246:56 *1370:A 0
55 *256:10 *272:12 0.000197633
56 *256:10 *272:23 5.05521e-05
57 *265:69 *272:57 8.09021e-06
58 *265:93 *272:57 1.79483e-05
59 *268:8 *272:12 0.000102913
60 *269:97 *1207:C1 0
61 *271:76 *1370:A 0
*RES
1 *1371:X *272:6 3.6 
2 *272:6 *272:12 8.63 
3 *272:12 *1368:A 1.6 
4 *272:12 *272:23 8.075 
5 *272:23 *1370:A 14.16 
6 *272:23 *1207:C1 20.055 
7 *272:6 *272:57 14.179 
8 *272:57 *1279:C1 8.565 
9 *272:57 *1281:C1 9.06 
*END

*D_NET *273 0.0140233
*CONN
*I *1261:B1 I *D sky130_fd_sc_hd__a31o_2
*I *1265:B1 I *D sky130_fd_sc_hd__a21oi_2
*I *1075:A I *D sky130_fd_sc_hd__inv_2
*I *1108:A I *D sky130_fd_sc_hd__or3b_2
*I *1107:A I *D sky130_fd_sc_hd__nor2_2
*I *1252:C1 I *D sky130_fd_sc_hd__a211oi_2
*I *1242:C1 I *D sky130_fd_sc_hd__a211o_2
*I *1214:A I *D sky130_fd_sc_hd__nor2_2
*I *1172:A I *D sky130_fd_sc_hd__or2_2
*I *1240:A I *D sky130_fd_sc_hd__or3_2
*I *1372:X O *D sky130_fd_sc_hd__clkdlybuf4s25_1
*CAP
1 *1261:B1 5.06274e-05
2 *1265:B1 0.000253837
3 *1075:A 2.05783e-05
4 *1108:A 0.00127058
5 *1107:A 5.60857e-05
6 *1252:C1 0
7 *1242:C1 0
8 *1214:A 0
9 *1172:A 9.59817e-05
10 *1240:A 4.65668e-05
11 *1372:X 8.8232e-05
12 *273:105 0.00172631
13 *273:97 0.00097164
14 *273:78 0.000964248
15 *273:65 0.000838277
16 *273:35 0.000321792
17 *273:14 0.000474521
18 *273:12 0.000755209
19 *273:10 0.000626231
20 *273:8 0.000383629
21 *1107:A *1074:A 0
22 *1108:A *1152:A2 0
23 *1108:A *1418:A 0
24 *1108:A *367:27 0
25 *1108:A *367:31 0.0001249
26 *1108:A *368:17 0.0001249
27 *1261:B1 *1067:A 4.43871e-06
28 *1261:B1 *387:10 0
29 *1261:B1 *387:51 4.99619e-05
30 *1265:B1 *1084:B 2.04101e-05
31 *273:8 *387:10 0
32 *273:10 *1067:A 2.76276e-05
33 *273:10 *1084:A 0.000140852
34 *273:65 *1242:A1 1.05984e-05
35 *273:78 *1242:A1 0.000386543
36 *273:97 *1251:B1_N 0.00011099
37 *273:105 *384:8 0.000120186
38 *273:105 *384:27 0.000183729
39 *1110:A1 *273:105 7.4534e-05
40 *1112:A3 *1108:A 0.000501915
41 *1172:B *273:14 0
42 *1172:B *273:35 2.97561e-05
43 *1173:A *1107:A 4.24562e-05
44 *1214:B *1172:A 0
45 *1240:C *273:14 0
46 *1240:C *273:65 0.000247487
47 *1241:B1_N *1240:A 5.30673e-05
48 *1242:A2 *273:65 1.85674e-05
49 *1242:B1 *273:65 0.000194024
50 *1254:B1 *273:97 0.000291906
51 *1263:B1 *273:10 0
52 *1265:A1 *1265:B1 0.00012657
53 *1265:A1 *273:10 0
54 *1265:A2 *1265:B1 0.0001138
55 *1305:D *1107:A 9.30787e-05
56 *1305:D *1108:A 7.36892e-05
57 *1305:D *273:105 2.14129e-05
58 *1335:D *1265:B1 1.61831e-05
59 *1346:CLK *1107:A 5.53249e-06
60 *1371:A *273:105 4.43871e-06
61 *124:30 *1108:A 1.60203e-05
62 *124:34 *1108:A 0.000319172
63 *195:39 *273:78 0
64 *195:39 *273:97 0
65 *195:50 *273:97 0
66 *196:51 *1261:B1 2.75229e-05
67 *220:8 *273:97 0.000347917
68 *225:14 *273:8 7.9381e-05
69 *225:14 *273:10 1.03833e-05
70 *239:23 *1075:A 2.75229e-05
71 *239:23 *273:97 2.17931e-05
72 *239:33 *273:78 0.000242677
73 *239:33 *273:97 7.98007e-06
74 *241:8 *1107:A 1.26548e-05
75 *241:24 *1172:A 9.91257e-05
76 *241:24 *1240:A 8.65961e-05
77 *241:24 *273:35 0.000314745
78 *241:73 *273:105 0.00021328
79 *248:18 *273:8 0
80 *248:33 *273:105 0
81 *266:38 *1108:A 3.86529e-05
*RES
1 *1372:X *273:8 5.3625 
2 *273:8 *273:10 4.5675 
3 *273:10 *273:12 1.89 
4 *273:12 *273:14 3.165 
5 *273:14 *1240:A 5.01 
6 *273:14 *273:35 9.48 
7 *273:35 *1172:A 3.805 
8 *273:35 *1214:A 1.6 
9 *273:12 *273:65 9.68 
10 *273:65 *1242:C1 1.6 
11 *273:65 *273:78 10.28 
12 *273:78 *1252:C1 3.6 
13 *273:78 *273:97 11.12 
14 *273:97 *273:105 11.33 
15 *273:105 *1107:A 4.98 
16 *273:105 *1108:A 25.06 
17 *273:97 *1075:A 2.05 
18 *273:10 *1265:B1 8.22 
19 *273:8 *1261:B1 4.7325 
*END

*D_NET *274 0.00128687
*CONN
*I *1173:B I *D sky130_fd_sc_hd__or2_2
*I *1373:X O *D sky130_fd_sc_hd__dlygate4sd3_1
*CAP
1 *1173:B 0.000597727
2 *1373:X 0.000597727
3 *1173:B *372:14 0
4 *1350:A *1173:B 8.05879e-05
5 *239:51 *1173:B 1.08294e-05
6 *241:8 *1173:B 0
*RES
1 *1373:X *1173:B 13.95 
*END

*D_NET *275 0.000912399
*CONN
*I *1140:A1 I *D sky130_fd_sc_hd__o21ai_2
*I *1141:A1 I *D sky130_fd_sc_hd__a21oi_2
*I *1374:X O *D sky130_fd_sc_hd__dlygate4sd3_1
*CAP
1 *1140:A1 0.000206256
2 *1141:A1 0.000167146
3 *1374:X 0
4 *275:4 0.000373402
5 *1140:B1 *1141:A1 1.4389e-05
6 *1141:B1 *1140:A1 0.000151206
*RES
1 *1374:X *275:4 1.6 
2 *275:4 *1141:A1 4.15 
3 *275:4 *1140:A1 9.47 
*END

*D_NET *276 0.000222064
*CONN
*I *1241:A1 I *D sky130_fd_sc_hd__o21ba_2
*I *1375:X O *D sky130_fd_sc_hd__dlygate4sd3_1
*CAP
1 *1241:A1 4.87967e-05
2 *1375:X 4.87967e-05
3 *1248:C1 *1241:A1 0.000124471
*RES
1 *1375:X *1241:A1 4.34 
*END

*D_NET *277 0.000656763
*CONN
*I *1202:B1_N I *D sky130_fd_sc_hd__o21bai_2
*I *1167:A1 I *D sky130_fd_sc_hd__o211a_2
*I *1376:X O *D sky130_fd_sc_hd__dlygate4sd3_1
*CAP
1 *1202:B1_N 0.000205279
2 *1167:A1 0
3 *1376:X 9.6569e-05
4 *277:6 0.000301848
5 *1202:A2 *1202:B1_N 0
6 *1377:A *277:6 5.30673e-05
*RES
1 *1376:X *277:6 3.3025 
2 *277:6 *1167:A1 1.6 
3 *277:6 *1202:B1_N 4.7275 
*END

*D_NET *278 0.000323077
*CONN
*I *1301:D I *D sky130_fd_sc_hd__dfxtp_2
*I *1377:X O *D sky130_fd_sc_hd__dlygate4sd3_1
*CAP
1 *1301:D 0.000159782
2 *1377:X 0.000159782
3 *1371:A *1301:D 0
4 *1377:A *1301:D 0
5 *244:85 *1301:D 3.51254e-06
*RES
1 *1377:X *1301:D 9.49875 
*END

*D_NET *279 0.00223988
*CONN
*I *1192:B1_N I *D sky130_fd_sc_hd__o21bai_2
*I *1159:A1 I *D sky130_fd_sc_hd__o211a_2
*I *1378:X O *D sky130_fd_sc_hd__dlygate4sd3_1
*CAP
1 *1192:B1_N 0.000352752
2 *1159:A1 0.000151658
3 *1378:X 3.27521e-05
4 *279:6 0.000537163
5 *1159:A1 *1367:A 0.000250623
6 *1192:B1_N *1378:A 1.91597e-05
7 *1158:A *1159:A1 2.47827e-05
8 *1166:A *1192:B1_N 2.75145e-05
9 *1166:B *1192:B1_N 0.000321515
10 *1449:A *1192:B1_N 0.000319855
11 *268:31 *1192:B1_N 0.000153816
12 *268:31 *279:6 4.82863e-05
13 *272:57 *1159:A1 0
*RES
1 *1378:X *279:6 2.05 
2 *279:6 *1159:A1 8.95625 
3 *279:6 *1192:B1_N 12.935 
*END

*D_NET *280 0.000444191
*CONN
*I *1297:D I *D sky130_fd_sc_hd__dfxtp_2
*I *1379:X O *D sky130_fd_sc_hd__dlygate4sd3_1
*CAP
1 *1297:D 0.00013077
2 *1379:X 0.00013077
3 *1297:D *1415:A 0
4 *1297:CLK *1297:D 5.23341e-05
5 *268:31 *1297:D 0.000130317
6 *272:57 *1297:D 0
*RES
1 *1379:X *1297:D 10.0087 
*END

*D_NET *281 0.00274056
*CONN
*I *1269:A1 I *D sky130_fd_sc_hd__o311a_2
*I *1438:X O *D sky130_fd_sc_hd__clkdlybuf4s25_1
*CAP
1 *1269:A1 0.000750386
2 *1438:X 0.000750386
3 *1269:A1 *1273:A1 0.000757184
4 *1271:A2 *1269:A1 0
5 *1273:C1 *1269:A1 0.000146857
6 *102:100 *1269:A1 1.08985e-05
7 *102:107 *1269:A1 0.000220772
8 *268:58 *1269:A1 0.00010408
*RES
1 *1438:X *1269:A1 15.44 
*END

*D_NET *282 0.00158814
*CONN
*I *1073:A I *D sky130_fd_sc_hd__inv_2
*I *1126:A2 I *D sky130_fd_sc_hd__a31o_2
*I *1380:X O *D sky130_fd_sc_hd__dlygate4sd3_1
*CAP
1 *1073:A 0
2 *1126:A2 0.000336253
3 *1380:X 5.74302e-05
4 *282:6 0.000393683
5 *1127:A1 *1126:A2 0.000279985
6 *1127:A2 *1126:A2 1.64056e-05
7 *1127:B1 *1126:A2 6.81888e-05
8 *1282:CLK *1126:A2 0.000219793
9 *1330:CLK *282:6 0.000121659
10 *1381:A *1126:A2 8.28018e-06
11 *139:16 *1126:A2 3.75203e-05
12 *139:22 *1126:A2 4.89395e-05
*RES
1 *1380:X *282:6 2.74 
2 *282:6 *1126:A2 12.47 
3 *282:6 *1073:A 1.6 
*END

*D_NET *283 0.000285161
*CONN
*I *1282:D I *D sky130_fd_sc_hd__dfxtp_2
*I *1381:X O *D sky130_fd_sc_hd__dlygate4sd3_1
*CAP
1 *1282:D 5.80193e-05
2 *1381:X 5.80193e-05
3 *1282:D *343:23 0.000144132
4 *1282:CLK *1282:D 2.49909e-05
*RES
1 *1381:X *1282:D 4.56875 
*END

*D_NET *284 0.000939622
*CONN
*I *1169:A1 I *D sky130_fd_sc_hd__o211a_2
*I *1204:B1_N I *D sky130_fd_sc_hd__o21bai_2
*I *1382:X O *D sky130_fd_sc_hd__dlygate4sd3_1
*CAP
1 *1169:A1 5.19773e-05
2 *1204:B1_N 0.000189166
3 *1382:X 0.000241143
4 *1204:B1_N *1382:A 0
5 *1169:A2 *1204:B1_N 0.000201508
6 *1169:B1 *1169:A1 0.000150718
7 *1169:B1 *1204:B1_N 4.82863e-05
8 *1205:B1 *1204:B1_N 4.82919e-05
9 *1316:D *1204:B1_N 8.53113e-06
10 *268:46 *1204:B1_N 0
*RES
1 *1382:X *1204:B1_N 10.86 
2 *1382:X *1169:A1 4.5575 
*END

*D_NET *285 0.000367259
*CONN
*I *1302:D I *D sky130_fd_sc_hd__dfxtp_2
*I *1383:X O *D sky130_fd_sc_hd__dlygate4sd3_1
*CAP
1 *1302:D 0.000183629
2 *1383:X 0.000183629
3 *1168:A *1302:D 0
4 *1383:A *1302:D 0
5 *1450:A *1302:D 0
*RES
1 *1383:X *1302:D 9.84375 
*END

*D_NET *286 0.00118769
*CONN
*I *1134:A1 I *D sky130_fd_sc_hd__o21ai_2
*I *1135:A1 I *D sky130_fd_sc_hd__a21oi_2
*I *1384:X O *D sky130_fd_sc_hd__dlygate4sd3_1
*CAP
1 *1134:A1 0
2 *1135:A1 0.000189025
3 *1384:X 6.75526e-05
4 *286:6 0.000256578
5 *1135:A1 *351:8 0
6 *1135:B1 *1135:A1 0.000296088
7 *1286:D *1135:A1 3.68682e-05
8 *137:20 *1135:A1 5.34747e-05
9 *137:26 *1135:A1 0
10 *242:18 *1135:A1 0
11 *242:24 *1135:A1 0.000124895
12 *264:58 *286:6 8.65961e-05
13 *264:69 *286:6 7.66083e-05
*RES
1 *1384:X *286:6 3.085 
2 *286:6 *1135:A1 10.67 
3 *286:6 *1134:A1 1.6 
*END

*D_NET *287 0.00113251
*CONN
*I *1206:B1_N I *D sky130_fd_sc_hd__o21bai_2
*I *1171:A1 I *D sky130_fd_sc_hd__o211a_2
*I *1385:X O *D sky130_fd_sc_hd__dlygate4sd3_1
*CAP
1 *1206:B1_N 0.000304905
2 *1171:A1 8.54014e-05
3 *1385:X 5.61532e-05
4 *287:6 0.000446459
5 *1206:B1_N *1385:A 0
6 *1170:A *1206:B1_N 0
7 *1171:A2 *1171:A1 2.04306e-06
8 *1171:B1 *1171:A1 2.63039e-05
9 *1171:B1 *1206:B1_N 0.000100348
10 *1206:A2 *1206:B1_N 0
11 *1317:D *1206:B1_N 4.94326e-05
12 *1386:A *287:6 2.11084e-05
13 *158:53 *1206:B1_N 0
14 *159:89 *1171:A1 3.00155e-05
15 *159:89 *287:6 1.03423e-05
16 *247:19 *1206:B1_N 0
17 *267:31 *1206:B1_N 0
*RES
1 *1385:X *287:6 2.395 
2 *287:6 *1171:A1 3.03625 
3 *287:6 *1206:B1_N 11.06 
*END

*D_NET *288 0.000330771
*CONN
*I *1303:D I *D sky130_fd_sc_hd__dfxtp_2
*I *1386:X O *D sky130_fd_sc_hd__dlygate4sd3_1
*CAP
1 *1303:D 0.000121347
2 *1386:X 0.000121347
3 *1170:A *1303:D 1.94805e-05
4 *1451:A *1303:D 5.42251e-05
5 *247:64 *1303:D 1.43717e-05
*RES
1 *1386:X *1303:D 9.16875 
*END

*D_NET *289 0.00160354
*CONN
*I *1161:A1 I *D sky130_fd_sc_hd__o211a_2
*I *1194:B1_N I *D sky130_fd_sc_hd__o21bai_2
*I *1387:X O *D sky130_fd_sc_hd__dlygate4sd3_1
*CAP
1 *1161:A1 6.08833e-06
2 *1194:B1_N 0.000295856
3 *1387:X 9.93359e-05
4 *289:10 0.000401281
5 *289:10 *1387:A 0
6 *1161:B1 *1161:A1 1.12643e-05
7 *1171:C1 *289:10 8.65961e-05
8 *1207:C1 *1194:B1_N 0
9 *158:63 *1194:B1_N 0
10 *159:59 *1194:B1_N 0.000316799
11 *159:76 *1194:B1_N 9.50342e-06
12 *159:76 *289:10 0.00023873
13 *269:97 *1194:B1_N 4.43871e-06
14 *269:108 *1194:B1_N 3.67779e-05
15 *269:129 *1194:B1_N 9.68709e-05
*RES
1 *1387:X *289:10 6.285 
2 *289:10 *1194:B1_N 10.08 
3 *289:10 *1161:A1 3.70875 
*END

*D_NET *290 0.000716906
*CONN
*I *1298:D I *D sky130_fd_sc_hd__dfxtp_2
*I *1388:X O *D sky130_fd_sc_hd__dlygate4sd3_1
*CAP
1 *1298:D 0.000217145
2 *1388:X 0.000217145
3 *1312:CLK *1298:D 7.99391e-05
4 *158:53 *1298:D 6.27438e-05
5 *247:64 *1298:D 0.000139933
6 *253:10 *1298:D 0
*RES
1 *1388:X *1298:D 11.04 
*END

*D_NET *291 0.0030762
*CONN
*I *1196:B1_N I *D sky130_fd_sc_hd__o21bai_2
*I *1163:A1 I *D sky130_fd_sc_hd__o211a_2
*I *1389:X O *D sky130_fd_sc_hd__dlygate4sd3_1
*CAP
1 *1196:B1_N 0
2 *1163:A1 0.000400038
3 *1389:X 0.000364278
4 *291:12 0.000764315
5 *291:12 *1165:A1 0
6 *291:12 *1201:A1 0
7 *291:12 *1299:D 0.000231025
8 *1163:A2 *1163:A1 7.24402e-05
9 *1196:A2 *291:12 0.000201407
10 *1197:B1 *291:12 4.82919e-05
11 *1299:CLK *291:12 0.000161529
12 *1300:CLK *291:12 0.000141606
13 *1313:D *1163:A1 0
14 *1314:D *291:12 0.000105068
15 *1390:A *1163:A1 0
16 *158:43 *1163:A1 4.43871e-06
17 *158:43 *291:12 1.46744e-05
18 *159:89 *1163:A1 0.000163175
19 *179:89 *291:12 0.00040392
*RES
1 *1389:X *291:12 16.625 
2 *291:12 *1163:A1 12.8675 
3 *291:12 *1196:B1_N 1.6 
*END

*D_NET *292 0.00330764
*CONN
*I *1271:A1 I *D sky130_fd_sc_hd__o311a_2
*I *1439:X O *D sky130_fd_sc_hd__clkdlybuf4s25_1
*CAP
1 *1271:A1 0.000992825
2 *1439:X 0.000992825
3 *1271:A1 *1081:A0 0
4 *1271:A1 *1417:A 3.17852e-05
5 rx_data[1] *1271:A1 4.66108e-05
6 *1338:D *1271:A1 0.000143266
7 *1437:A *1271:A1 7.28419e-05
8 *1439:A *1271:A1 0.000454724
9 *1440:A *1271:A1 0.00038697
10 *1445:A *1271:A1 0
11 *3:30 *1271:A1 0.000135825
12 *268:50 *1271:A1 4.99619e-05
*RES
1 *1439:X *1271:A1 23.82 
*END

*D_NET *293 0.00204148
*CONN
*I *1299:D I *D sky130_fd_sc_hd__dfxtp_2
*I *1390:X O *D sky130_fd_sc_hd__dlygate4sd3_1
*CAP
1 *1299:D 0.000483059
2 *1390:X 0.000483059
3 *1299:D *1165:A1 0
4 *1299:CLK *1299:D 3.77036e-05
5 *1390:A *1299:D 0.000384433
6 *1447:A *1299:D 0.000111184
7 *158:43 *1299:D 0.000311016
8 *291:12 *1299:D 0.000231025
*RES
1 *1390:X *1299:D 16.6688 
*END

*D_NET *294 0.00242162
*CONN
*I *1157:A1 I *D sky130_fd_sc_hd__o211a_2
*I *1191:A1 I *D sky130_fd_sc_hd__o211a_2
*I *1391:X O *D sky130_fd_sc_hd__dlygate4sd3_1
*CAP
1 *1157:A1 0.000194542
2 *1191:A1 0.000156256
3 *1391:X 0
4 *294:6 0.000350798
5 *1157:A1 *1389:A 4.30026e-05
6 *1157:B1 *1157:A1 0.000238361
7 *1157:B1 *1191:A1 0.000321529
8 *1157:C1 *1157:A1 0.000208833
9 *1157:C1 *1191:A1 0.000319167
10 *1296:CLK *1191:A1 3.57349e-05
11 *246:12 *1191:A1 0.000258828
12 *271:118 *1191:A1 0.000294563
*RES
1 *1391:X *294:6 3.6 
2 *294:6 *1191:A1 10.3575 
3 *294:6 *1157:A1 8.79375 
*END

*D_NET *295 0.00184817
*CONN
*I *1165:A1 I *D sky130_fd_sc_hd__o211a_2
*I *1201:A1 I *D sky130_fd_sc_hd__o211a_2
*I *1392:X O *D sky130_fd_sc_hd__dlygate4sd3_1
*CAP
1 *1165:A1 0.00024842
2 *1201:A1 0.000304469
3 *1392:X 3.38648e-05
4 *295:8 0.000586753
5 rx_data[4] *295:8 4.82919e-05
6 *1165:A2 *1165:A1 4.00541e-06
7 *1299:D *1165:A1 0
8 *1300:CLK *1201:A1 0.000131791
9 *1300:D *1165:A1 0.000111324
10 *1300:D *1201:A1 0.000176629
11 *1314:D *1201:A1 4.99619e-05
12 *1390:A *1165:A1 0
13 *269:66 *1165:A1 0.000152662
14 *291:12 *1165:A1 0
15 *291:12 *1201:A1 0
*RES
1 *1392:X *295:8 4.05 
2 *295:8 *1201:A1 10.0125 
3 *295:8 *1165:A1 8.4225 
*END

*D_NET *296 0.000200252
*CONN
*I *1156:A I *D sky130_fd_sc_hd__or2_2
*I *1393:X O *D sky130_fd_sc_hd__dlygate4sd3_1
*CAP
1 *1156:A 5.89619e-05
2 *1393:X 5.89619e-05
3 *158:16 *1156:A 3.23663e-05
4 *158:27 *1156:A 4.99619e-05
*RES
1 *1393:X *1156:A 4.34 
*END

*D_NET *297 0.000357257
*CONN
*I *1164:A I *D sky130_fd_sc_hd__or2_2
*I *1394:X O *D sky130_fd_sc_hd__dlygate4sd3_1
*CAP
1 *1164:A 9.74271e-05
2 *1394:X 9.74271e-05
3 rx_data[4] *1164:A 0.00012345
4 *158:31 *1164:A 3.89528e-05
*RES
1 *1394:X *1164:A 9.12 
*END

*D_NET *298 0.000500477
*CONN
*I *1136:A1 I *D sky130_fd_sc_hd__o21ai_2
*I *1395:X O *D sky130_fd_sc_hd__dlygate4sd3_1
*CAP
1 *1136:A1 7.42793e-05
2 *1395:X 7.42793e-05
3 *1136:A1 *1119:B 0.000116165
4 *1119:C *1136:A1 6.28843e-05
5 *1139:A_N *1136:A1 0.000122325
6 *137:10 *1136:A1 5.05437e-05
*RES
1 *1395:X *1136:A1 9.72 
*END

*D_NET *299 0.000499267
*CONN
*I *1130:A1 I *D sky130_fd_sc_hd__o21ai_2
*I *1396:X O *D sky130_fd_sc_hd__dlygate4sd3_1
*CAP
1 *1130:A1 0.000177878
2 *1396:X 0.000177878
3 *1130:A1 *1121:C 8.29434e-05
4 *1130:A1 *351:43 4.82919e-05
5 *1130:A1 *352:38 1.22762e-05
6 *242:12 *1130:A1 0
*RES
1 *1396:X *1130:A1 10.41 
*END

*D_NET *300 0.0060445
*CONN
*I *1151:A1 I *D sky130_fd_sc_hd__o2111a_2
*I *1112:A2 I *D sky130_fd_sc_hd__a31o_2
*I *1106:A1 I *D sky130_fd_sc_hd__a21oi_2
*I *1074:A I *D sky130_fd_sc_hd__inv_2
*I *1397:X O *D sky130_fd_sc_hd__dlygate4sd3_1
*CAP
1 *1151:A1 0.000640933
2 *1112:A2 0
3 *1106:A1 0
4 *1074:A 0.000264071
5 *1397:X 0
6 *300:42 0.00119937
7 *300:8 0.000377047
8 *300:4 0.000671415
9 *1151:A1 *1123:A 4.22057e-05
10 *1151:A1 *1123:B 4.82863e-05
11 *300:42 *1111:B2 5.81326e-05
12 *300:42 *1152:A2 8.89156e-05
13 *300:42 *1418:A 0.000203178
14 *300:42 *370:26 0.000302749
15 *1106:A2 *1074:A 0
16 *1106:A2 *300:8 6.9114e-05
17 *1106:B1 *300:8 4.99619e-05
18 *1106:B1 *300:42 0.000241483
19 *1107:A *1074:A 0
20 *1107:B *1074:A 4.82919e-05
21 *1109:A *1074:A 8.53113e-06
22 *1110:A2 *1074:A 0
23 *1111:A2 *300:42 0.000314917
24 *1111:B1 *300:42 0.0001407
25 *1112:A1 *300:42 9.50342e-06
26 *1112:A3 *1151:A1 3.26889e-05
27 *1112:B1 *300:42 4.21973e-05
28 *1153:A *1151:A1 0.000135828
29 *1155:C *300:42 3.99983e-05
30 *1295:D *1151:A1 0.000650004
31 *248:33 *1074:A 0.000349596
32 *266:38 *1151:A1 1.53809e-05
*RES
1 *1397:X *300:4 1.6 
2 *300:4 *300:8 2.19 
3 *300:8 *1074:A 10.685 
4 *300:8 *1106:A1 1.6 
5 *300:4 *300:42 18.13 
6 *300:42 *1112:A2 1.6 
7 *300:42 *1151:A1 14.26 
*END

*D_NET *301 0.000257027
*CONN
*I *1253:B1 I *D sky130_fd_sc_hd__a21oi_2
*I *1398:X O *D sky130_fd_sc_hd__dlygate4sd3_1
*CAP
1 *1253:B1 3.43324e-05
2 *1398:X 3.43324e-05
3 *1253:B1 *1254:A1 1.34361e-05
4 *1255:A *1253:B1 7.4027e-05
5 *1255:B *1253:B1 7.4027e-05
6 *1256:A3 *1253:B1 2.68721e-05
7 *239:73 *1253:B1 0
*RES
1 *1398:X *1253:B1 8.58 
*END

*D_NET *302 0.000304589
*CONN
*I *1332:D I *D sky130_fd_sc_hd__dfxtp_2
*I *1399:X O *D sky130_fd_sc_hd__dlygate4sd3_1
*CAP
1 *1332:D 8.06615e-05
2 *1399:X 8.06615e-05
3 *1371:A *1332:D 0.000143266
4 *244:85 *1332:D 0
*RES
1 *1399:X *1332:D 8.97375 
*END

*D_NET *303 0.00291756
*CONN
*I *1273:A1 I *D sky130_fd_sc_hd__o311a_2
*I *1440:X O *D sky130_fd_sc_hd__clkdlybuf4s25_1
*CAP
1 *1273:A1 0.000769045
2 *1440:X 0.000769045
3 *1269:A1 *1273:A1 0.000757184
4 *1281:A1 *1273:A1 8.64421e-05
5 *1281:A3 *1273:A1 0
6 *1343:D *1273:A1 5.91322e-05
7 *102:92 *1273:A1 0.000161529
8 *102:100 *1273:A1 0.000315178
*RES
1 *1440:X *1273:A1 23.295 
*END

*D_NET *304 0.00041474
*CONN
*I *1142:A1 I *D sky130_fd_sc_hd__o21ai_2
*I *1400:X O *D sky130_fd_sc_hd__dlygate4sd3_1
*CAP
1 *1142:A1 0.000120058
2 *1400:X 0.000120058
3 *1142:A1 *348:14 4.82919e-05
4 *1142:B1 *1142:A1 1.01661e-05
5 *1143:B *1142:A1 0.000116165
6 *134:12 *1142:A1 0
*RES
1 *1400:X *1142:A1 9.285 
*END

*D_NET *305 0.000648943
*CONN
*I *1216:B I *D sky130_fd_sc_hd__nand2b_2
*I *1401:X O *D sky130_fd_sc_hd__dlygate4sd3_1
*CAP
1 *1216:B 0.000158115
2 *1401:X 0.000158115
3 *1216:B *375:39 0.000207817
4 *1216:B *375:45 0.000124895
*RES
1 *1401:X *1216:B 6.755 
*END

*D_NET *306 0.000686416
*CONN
*I *1319:D I *D sky130_fd_sc_hd__dfxtp_2
*I *1402:X O *D sky130_fd_sc_hd__dlygate4sd3_1
*CAP
1 *1319:D 0.000263182
2 *1402:X 0.000263182
3 *1319:D *1210:C 0.000134123
4 *1212:C *1319:D 2.59285e-05
*RES
1 *1402:X *1319:D 11.8837 
*END

*D_NET *307 0.00338594
*CONN
*I *1113:A I *D sky130_fd_sc_hd__nand2_2
*I *1071:A I *D sky130_fd_sc_hd__inv_2
*I *1403:X O *D sky130_fd_sc_hd__dlygate4sd3_1
*CAP
1 *1113:A 0.000653289
2 *1071:A 0.000133559
3 *1403:X 9.09247e-05
4 *307:6 0.000877772
5 *1113:A *1100:A 0.000319167
6 *1113:A *1114:C 2.05056e-05
7 *1113:A *340:19 0.000280426
8 *1113:A *340:43 0.000271303
9 *307:6 *340:19 6.97118e-05
10 *1148:B *1113:A 4.82863e-05
11 *1150:C1 *1113:A 4.08514e-05
12 *1292:D *1071:A 3.09164e-05
13 *1292:D *1113:A 1.43717e-05
14 *115:10 *1071:A 0
15 *116:18 *1113:A 0.0003175
16 *122:10 *1113:A 4.66108e-05
17 *142:38 *1113:A 3.96737e-05
18 *243:10 *1071:A 4.13171e-05
19 *243:14 *1071:A 8.97564e-05
*RES
1 *1403:X *307:6 2.74 
2 *307:6 *1071:A 8.51 
3 *307:6 *1113:A 17.765 
*END

*D_NET *308 0.00036137
*CONN
*I *1294:D I *D sky130_fd_sc_hd__dfxtp_2
*I *1404:X O *D sky130_fd_sc_hd__dlygate4sd3_1
*CAP
1 *1294:D 0.000180685
2 *1404:X 0.000180685
3 *1294:D *1152:A1 0
4 *1294:D *1152:A2 0
*RES
1 *1404:X *1294:D 10.0087 
*END

*D_NET *309 0.000106042
*CONN
*I *1262:A1 I *D sky130_fd_sc_hd__o21ba_2
*I *1405:X O *D sky130_fd_sc_hd__dlygate4sd3_1
*CAP
1 *1262:A1 5.05585e-05
2 *1405:X 5.05585e-05
3 *1453:A *1262:A1 4.9253e-06
*RES
1 *1405:X *1262:A1 3.995 
*END

*D_NET *310 0.0015159
*CONN
*I *1245:A I *D sky130_fd_sc_hd__nand3_2
*I *1243:A1 I *D sky130_fd_sc_hd__o21ba_2
*I *1406:X O *D sky130_fd_sc_hd__dlygate4sd3_1
*CAP
1 *1245:A 0.000120981
2 *1243:A1 3.58353e-05
3 *1406:X 0.000292518
4 *310:12 0.000449334
5 *1243:A2 *1243:A1 8.64421e-05
6 *1243:A2 *1245:A 4.8111e-05
7 *1246:B *310:12 0.000237707
8 *1246:C *1245:A 9.47017e-05
9 *1328:D *310:12 0
10 *195:20 *310:12 0.000102557
11 *196:18 *310:12 0
12 *213:45 *310:12 4.77153e-05
13 *239:35 *310:12 0
*RES
1 *1406:X *310:12 11.51 
2 *310:12 *1243:A1 2.395 
3 *310:12 *1245:A 4.135 
*END

*D_NET *311 0.00113211
*CONN
*I *1104:B I *D sky130_fd_sc_hd__nand2b_2
*I *1407:X O *D sky130_fd_sc_hd__dlygate4sd3_1
*CAP
1 *1104:B 0.000305919
2 *1407:X 0.000305919
3 *1104:B *1367:A 0
4 *1106:B1 *1104:B 0.000139122
5 *1345:CLK *1104:B 0.0001249
6 *1345:D *1104:B 1.54049e-05
7 *266:12 *1104:B 0.000240847
*RES
1 *1407:X *1104:B 13.74 
*END

*D_NET *312 0.00124955
*CONN
*I *1278:A I *D sky130_fd_sc_hd__or2_2
*I *1408:X O *D sky130_fd_sc_hd__dlygate4sd3_1
*CAP
1 *1278:A 0.000308414
2 *1408:X 0.000308414
3 *1278:A *1081:A3 1.19928e-05
4 *1278:A *1280:A 7.465e-05
5 *1272:B *1278:A 3.61388e-06
6 *1279:B1 *1278:A 0.000403735
7 *219:10 *1278:A 4.04796e-05
8 *265:108 *1278:A 4.82919e-05
9 *268:79 *1278:A 4.99619e-05
*RES
1 *1408:X *1278:A 13.335 
*END

*D_NET *313 0.000487658
*CONN
*I *1276:A I *D sky130_fd_sc_hd__or2_2
*I *1409:X O *D sky130_fd_sc_hd__dlygate4sd3_1
*CAP
1 *1276:A 0.000131277
2 *1409:X 0.000131277
3 *1267:A2 *1276:A 8.35124e-05
4 *219:12 *1276:A 0.000141592
5 *268:83 *1276:A 0
*RES
1 *1409:X *1276:A 9.63 
*END

*D_NET *314 0.00140653
*CONN
*I *1275:A1 I *D sky130_fd_sc_hd__o311a_2
*I *1441:X O *D sky130_fd_sc_hd__clkdlybuf4s25_1
*CAP
1 *1275:A1 0.000294144
2 *1441:X 0.000294144
3 *1340:D *1275:A1 9.37731e-05
4 *1435:A *1275:A1 9.57632e-05
5 *1441:A *1275:A1 0.000160641
6 *102:10 *1275:A1 9.50342e-06
7 *102:29 *1275:A1 0.000239813
8 *250:10 *1275:A1 0.00021067
9 *265:54 *1275:A1 8.08153e-06
*RES
1 *1441:X *1275:A1 14.775 
*END

*D_NET *315 0.000559837
*CONN
*I *1274:A I *D sky130_fd_sc_hd__or2_2
*I *1410:X O *D sky130_fd_sc_hd__dlygate4sd3_1
*CAP
1 *1274:A 0.000118063
2 *1410:X 0.000118063
3 *1274:A *1410:A 1.1392e-05
4 *1274:B *1274:A 4.99619e-05
5 *1275:C1 *1274:A 0.000124895
6 *1341:CLK *1274:A 4.60584e-05
7 *1341:D *1274:A 9.14049e-05
8 *102:25 *1274:A 0
*RES
1 *1410:X *1274:A 9.915 
*END

*D_NET *316 0.000398612
*CONN
*I *1280:A I *D sky130_fd_sc_hd__or2_2
*I *1411:X O *D sky130_fd_sc_hd__dlygate4sd3_1
*CAP
1 *1280:A 8.28057e-05
2 *1411:X 8.28057e-05
3 *1280:A *1081:A3 1.81039e-05
4 *1272:B *1280:A 0.000140247
5 *1278:A *1280:A 7.465e-05
*RES
1 *1411:X *1280:A 9.285 
*END

*D_NET *317 0.000911044
*CONN
*I *1272:A I *D sky130_fd_sc_hd__or2_2
*I *1412:X O *D sky130_fd_sc_hd__dlygate4sd3_1
*CAP
1 *1272:A 0.000276851
2 *1412:X 0.000276851
3 *1281:A1 *1272:A 0.000180039
4 *1434:A *1272:A 0.000138126
5 *1439:A *1272:A 2.93678e-05
6 *1440:A *1272:A 9.80943e-06
*RES
1 *1412:X *1272:A 12.39 
*END

*D_NET *318 0.00082641
*CONN
*I *1070:A I *D sky130_fd_sc_hd__inv_2
*I *1247:B1 I *D sky130_fd_sc_hd__a31o_2
*I *1413:X O *D sky130_fd_sc_hd__dlygate4sd3_1
*CAP
1 *1070:A 0
2 *1247:B1 0.000242595
3 *1413:X 0.000131169
4 *318:10 0.000373764
5 *1247:B1 *1413:A 0
6 *1247:B1 *372:14 5.83121e-06
7 *1247:B1 *374:8 7.30505e-05
8 *318:10 *1413:A 0
9 *318:10 *372:14 0
*RES
1 *1413:X *318:10 5.43 
2 *318:10 *1247:B1 7.83 
3 *318:10 *1070:A 3.6 
*END

*D_NET *319 0.000322511
*CONN
*I *1330:D I *D sky130_fd_sc_hd__dfxtp_2
*I *1414:X O *D sky130_fd_sc_hd__dlygate4sd3_1
*CAP
1 *1330:D 0.000131978
2 *1414:X 0.000131978
3 *1330:D *1413:A 5.85556e-05
*RES
1 *1414:X *1330:D 9.42375 
*END

*D_NET *320 0.00103128
*CONN
*I *1266:A I *D sky130_fd_sc_hd__or2_2
*I *1415:X O *D sky130_fd_sc_hd__dlygate4sd3_1
*CAP
1 *1266:A 0.00019754
2 *1415:X 0.00019754
3 *1266:A *1270:A 9.66021e-05
4 *1158:A *1266:A 2.65814e-06
5 *1267:B1 *1266:A 9.62171e-05
6 *1316:CLK *1266:A 0.00012657
7 *1445:A *1266:A 0.000314151
8 *3:30 *1266:A 0
*RES
1 *1415:X *1266:A 12.81 
*END

*D_NET *321 0.00173485
*CONN
*I *1268:A I *D sky130_fd_sc_hd__or2_2
*I *1416:X O *D sky130_fd_sc_hd__dlygate4sd3_1
*CAP
1 *1268:A 0.000299846
2 *1416:X 0.000299846
3 *1267:A1 *1268:A 0
4 *1267:A3 *1268:A 3.9442e-05
5 *1269:A3 *1268:A 0.000239283
6 *1269:B1 *1268:A 0.000136182
7 *219:67 *1268:A 0
8 *245:14 *1268:A 0.000184343
9 *245:38 *1268:A 0.000116853
10 *245:55 *1268:A 0.000419054
*RES
1 *1416:X *1268:A 16.17 
*END

*D_NET *322 0.00217563
*CONN
*I *1270:A I *D sky130_fd_sc_hd__or2_2
*I *1417:X O *D sky130_fd_sc_hd__dlygate4sd3_1
*CAP
1 *1270:A 0.000646184
2 *1417:X 0.000646184
3 *1270:A *1081:A0 5.17316e-05
4 *1266:A *1270:A 9.66021e-05
5 *1266:B *1270:A 1.33293e-05
6 *1271:B1 *1270:A 0.00015639
7 *1316:CLK *1270:A 1.63179e-05
8 *1316:D *1270:A 9.26175e-06
9 *1383:A *1270:A 0
10 *1445:A *1270:A 0.000425135
11 *268:46 *1270:A 0.000114492
*RES
1 *1417:X *1270:A 17.79 
*END

*D_NET *323 0.000218923
*CONN
*I *1111:B2 I *D sky130_fd_sc_hd__a221o_2
*I *1418:X O *D sky130_fd_sc_hd__dlygate4sd3_1
*CAP
1 *1111:B2 3.47111e-05
2 *1418:X 3.47111e-05
3 *1111:A2 *1111:B2 0
4 *1111:B1 *1111:B2 9.13682e-05
5 *300:42 *1111:B2 5.81326e-05
*RES
1 *1418:X *1111:B2 4.46375 
*END

*D_NET *324 0.00030015
*CONN
*I *1252:A1 I *D sky130_fd_sc_hd__a211oi_2
*I *1419:X O *D sky130_fd_sc_hd__dlygate4sd3_1
*CAP
1 *1252:A1 0.00014716
2 *1419:X 0.00014716
3 *1331:D *1252:A1 5.83121e-06
*RES
1 *1419:X *1252:A1 5.375 
*END

*D_NET *325 0.00104647
*CONN
*I *1277:A1 I *D sky130_fd_sc_hd__o311a_2
*I *1442:X O *D sky130_fd_sc_hd__clkdlybuf4s25_1
*CAP
1 *1277:A1 0.000356977
2 *1442:X 0.000356977
3 tx_busy *1277:A1 1.4399e-05
4 *1249:A *1277:A1 0.00013994
5 *1279:A2 *1277:A1 0
6 *1454:A *1277:A1 8.15943e-05
7 *102:29 *1277:A1 4.82863e-05
8 *102:44 *1277:A1 4.82919e-05
*RES
1 *1442:X *1277:A1 13.185 
*END

*D_NET *326 0.000985804
*CONN
*I *1150:A1 I *D sky130_fd_sc_hd__o311a_2
*I *1420:X O *D sky130_fd_sc_hd__dlygate4sd3_1
*CAP
1 *1150:A1 0.000266303
2 *1420:X 0.000266303
3 *1150:A1 *1123:A 0.00011449
4 *1150:A1 *1146:A3 1.32017e-05
5 *1150:A1 *1150:A2 0
6 *1150:A1 *369:27 1.01661e-05
7 *1124:B1 *1150:A1 0
8 *1153:C *1150:A1 0.00011379
9 *1153:D *1150:A1 2.46007e-05
10 *1295:D *1150:A1 6.74079e-05
11 *115:35 *1150:A1 0.000105424
12 *141:12 *1150:A1 0
13 *271:19 *1150:A1 9.60582e-07
14 *271:34 *1150:A1 3.1562e-06
*RES
1 *1420:X *1150:A1 13.11 
*END

*D_NET *327 0.00025714
*CONN
*I *1224:A I *D sky130_fd_sc_hd__nand2_2
*I *1421:X O *D sky130_fd_sc_hd__dlygate4sd3_1
*CAP
1 *1224:A 9.93285e-05
2 *1421:X 9.93285e-05
3 *1224:B *1224:A 5.84828e-05
*RES
1 *1421:X *1224:A 5.045 
*END

*D_NET *328 0.00135573
*CONN
*I *1113:B I *D sky130_fd_sc_hd__nand2_2
*I *1422:X O *D sky130_fd_sc_hd__dlygate4sd3_1
*CAP
1 *1113:B 0.000403786
2 *1422:X 0.000403786
3 *1113:B *1422:A 0
4 *1148:A *1113:B 8.49205e-05
5 *1148:B *1113:B 0.000120655
6 *1150:C1 *1113:B 1.91597e-05
7 *1293:CLK *1113:B 0.00013521
8 *1293:D *1113:B 2.75538e-05
9 *116:29 *1113:B 0
10 *243:71 *1113:B 0.000160658
*RES
1 *1422:X *1113:B 14.595 
*END

*D_NET *329 0.000251429
*CONN
*I *1234:A I *D sky130_fd_sc_hd__nand2_2
*I *1423:X O *D sky130_fd_sc_hd__dlygate4sd3_1
*CAP
1 *1234:A 5.01685e-05
2 *1423:X 5.01685e-05
3 *1235:C *1234:A 0
4 *208:12 *1234:A 7.35729e-05
5 *208:54 *1234:A 4.66108e-05
6 *263:23 *1234:A 3.09088e-05
*RES
1 *1423:X *1234:A 4.7 
*END

*D_NET *330 0.000256704
*CONN
*I *1067:A I *D sky130_fd_sc_hd__inv_2
*I *1424:X O *D sky130_fd_sc_hd__dlygate4sd3_1
*CAP
1 *1067:A 8.65012e-05
2 *1424:X 8.65012e-05
3 *1067:A *1084:A 5.16348e-05
4 *1261:B1 *1067:A 4.43871e-06
5 *1265:A2 *1067:A 0
6 *273:10 *1067:A 2.76276e-05
*RES
1 *1424:X *1067:A 8.835 
*END

*D_NET *331 0.00028258
*CONN
*I *1222:B1 I *D sky130_fd_sc_hd__a31o_2
*I *1425:X O *D sky130_fd_sc_hd__dlygate4sd3_1
*CAP
1 *1222:B1 1.47197e-05
2 *1425:X 1.47197e-05
3 *1222:B1 *1209:D_N 0.00012657
4 *1222:B1 *376:31 0.00012657
*RES
1 *1425:X *1222:B1 4.34 
*END

*D_NET *332 0.0011216
*CONN
*I *1228:B1 I *D sky130_fd_sc_hd__a21o_2
*I *1426:X O *D sky130_fd_sc_hd__dlygate4sd3_1
*CAP
1 *1228:B1 0.000299043
2 *1426:X 0.000299043
3 *1228:B1 *1228:A1 8.46717e-05
4 *1228:B1 *378:65 2.68464e-05
5 *1228:B1 *379:14 3.86529e-05
6 *1223:B *1228:B1 0
7 *201:12 *1228:B1 0
8 *201:14 *1228:B1 0.000124473
9 *201:28 *1228:B1 1.53053e-05
10 *263:61 *1228:B1 0.000233565
*RES
1 *1426:X *1228:B1 13.5 
*END

*D_NET *333 0.000290037
*CONN
*I *1218:C I *D sky130_fd_sc_hd__nand3_2
*I *1427:X O *D sky130_fd_sc_hd__dlygate4sd3_1
*CAP
1 *1218:C 0.000145018
2 *1427:X 0.000145018
3 *1428:A *1218:C 0
4 *242:61 *1218:C 0
*RES
1 *1427:X *1218:C 9.375 
*END

*D_NET *334 0.00126652
*CONN
*I *1220:B I *D sky130_fd_sc_hd__and3_2
*I *1428:X O *D sky130_fd_sc_hd__dlygate4sd3_1
*CAP
1 *1220:B 0.000330009
2 *1428:X 0.000330009
3 *1220:B *1215:A_N 0.000160641
4 *1220:B *1429:A 0
5 *1220:C *1220:B 0.00044586
*RES
1 *1428:X *1220:B 14.25 
*END

*D_NET *335 0.00069648
*CONN
*I *1215:A_N I *D sky130_fd_sc_hd__and2b_2
*I *1429:X O *D sky130_fd_sc_hd__dlygate4sd3_1
*CAP
1 *1215:A_N 0.000191106
2 *1429:X 0.000191106
3 *1215:B *1215:A_N 0
4 *1220:B *1215:A_N 0.000160641
5 *1220:C *1215:A_N 8.88761e-05
6 *1320:D *1215:A_N 6.47516e-05
*RES
1 *1429:X *1215:A_N 11.265 
*END

*D_NET *336 0.000815334
*CONN
*I *1279:A1 I *D sky130_fd_sc_hd__o311a_2
*I *1443:X O *D sky130_fd_sc_hd__clkdlybuf4s25_1
*CAP
1 *1279:A1 0.000228155
2 *1443:X 0.000228155
3 tx_busy *1279:A1 0
4 *1342:CLK *1279:A1 0.000141868
5 *1342:D *1279:A1 5.20968e-05
6 *102:92 *1279:A1 0.00016506
*RES
1 *1443:X *1279:A1 12.105 
*END

*D_NET *337 0.000862532
*CONN
*I *1099:A1 I *D sky130_fd_sc_hd__a31o_2
*I *1430:X O *D sky130_fd_sc_hd__dlygate4sd3_1
*CAP
1 *1099:A1 0.000207987
2 *1430:X 0.000207987
3 *1099:A1 *1430:A 4.82863e-05
4 *1099:A3 *1099:A1 0.000173533
5 *1108:B *1099:A1 0.000141599
6 *1203:C1 *1099:A1 0
7 *1347:D *1099:A1 0
8 *1370:A *1099:A1 0
9 *246:56 *1099:A1 7.23602e-05
10 *266:102 *1099:A1 1.07797e-05
*RES
1 *1430:X *1099:A1 11.835 
*END

*D_NET *338 0.000775451
*CONN
*I *1236:B1 I *D sky130_fd_sc_hd__a21o_2
*I *1431:X O *D sky130_fd_sc_hd__dlygate4sd3_1
*CAP
1 *1236:B1 0.000269871
2 *1431:X 0.000269871
3 *1238:C *1236:B1 9.10613e-05
4 *1239:D *1236:B1 3.64998e-06
5 *263:12 *1236:B1 0.000113891
6 *263:113 *1236:B1 2.71075e-05
*RES
1 *1431:X *1236:B1 11.1 
*END

*D_NET *339 0.0015144
*CONN
*I *1122:A I *D sky130_fd_sc_hd__nand2_2
*I *1432:X O *D sky130_fd_sc_hd__dlygate4sd3_1
*CAP
1 *1122:A 0.000455578
2 *1432:X 0.000455578
3 *1122:A *343:23 4.89395e-05
4 *1122:B *1122:A 0.000124895
5 *1129:A *1122:A 6.77501e-05
6 *1129:B *1122:A 1.91597e-05
7 *1129:C *1122:A 0
8 *1283:D *1122:A 0.000159822
9 *124:30 *1122:A 1.94805e-05
10 *243:40 *1122:A 0
11 *264:22 *1122:A 0.000163199
*RES
1 *1432:X *1122:A 16.02 
*END

*D_NET *340 0.00406862
*CONN
*I *1114:A I *D sky130_fd_sc_hd__and3_2
*I *1100:A I *D sky130_fd_sc_hd__or2_2
*I *1091:D I *D sky130_fd_sc_hd__and4bb_2
*I *1115:A I *D sky130_fd_sc_hd__and4_2
*I *1403:A I *D sky130_fd_sc_hd__dlygate4sd3_1
*I *1294:Q O *D sky130_fd_sc_hd__dfxtp_2
*CAP
1 *1114:A 0
2 *1100:A 8.34419e-05
3 *1091:D 0
4 *1115:A 0.000161808
5 *1403:A 0
6 *1294:Q 3.41295e-05
7 *340:43 0.00014728
8 *340:23 0.000309526
9 *340:19 0.000626536
10 *340:10 0.000449109
11 *1100:A *344:16 0.000339886
12 *1115:A *1115:B 0.00021044
13 *1115:A *1115:C 0.000114441
14 *340:19 *345:6 5.83121e-06
15 *340:19 *345:32 0
16 *340:23 *1115:C 9.12494e-06
17 *340:23 *1146:A3 0
18 *340:23 *345:10 0.000152554
19 *340:43 *1114:C 0.000121437
20 *340:43 *345:6 1.19928e-05
21 *340:43 *345:32 4.58257e-05
22 *1113:A *1100:A 0.000319167
23 *1113:A *340:19 0.000280426
24 *1113:A *340:43 0.000271303
25 *1155:C *340:10 0.000120186
26 *1292:D *340:19 1.54049e-05
27 *116:18 *1100:A 1.07797e-05
28 *124:18 *340:19 9.2741e-05
29 *239:124 *340:10 6.55406e-05
30 *307:6 *340:19 6.97118e-05
*RES
1 *1294:Q *340:10 6.98 
2 *340:10 *1403:A 1.6 
3 *340:10 *340:19 8.4 
4 *340:19 *340:23 4.655 
5 *340:23 *1115:A 6.885 
6 *340:23 *1091:D 3.6 
7 *340:19 *340:43 2.52 
8 *340:43 *1100:A 9.53 
9 *340:43 *1114:A 1.6 
*END

*D_NET *341 0.00161708
*CONN
*I *1087:B I *D sky130_fd_sc_hd__nor3_2
*I *1088:B I *D sky130_fd_sc_hd__or3_2
*I *1396:A I *D sky130_fd_sc_hd__dlygate4sd3_1
*I *1121:C I *D sky130_fd_sc_hd__and4_2
*I *1284:Q O *D sky130_fd_sc_hd__dfxtp_2
*CAP
1 *1087:B 0.000102003
2 *1088:B 4.39668e-05
3 *1396:A 8.70165e-05
4 *1121:C 0.000103732
5 *1284:Q 0.000303592
6 *341:39 0.000276893
7 *341:26 0.000417799
8 *1121:C *351:43 7.92152e-05
9 *1121:C *352:38 0
10 *1121:D *1121:C 4.82919e-05
11 *1130:A1 *1121:C 8.29434e-05
12 *1130:A2 *1121:C 0
13 *1131:B *1121:C 0
14 *139:12 *1121:C 7.1624e-05
15 *264:39 *1121:C 0
*RES
1 *1284:Q *1121:C 9.885 
2 *1284:Q *341:26 5.775 
3 *341:26 *1396:A 5.01 
4 *341:26 *341:39 2.145 
5 *341:39 *1088:B 4.05 
6 *341:39 *1087:B 5.235 
*END

*D_NET *342 0.00365033
*CONN
*I *1087:A I *D sky130_fd_sc_hd__nor3_2
*I *1432:A I *D sky130_fd_sc_hd__dlygate4sd3_1
*I *1088:A I *D sky130_fd_sc_hd__or3_2
*I *1126:A1 I *D sky130_fd_sc_hd__a31o_2
*I *1128:A I *D sky130_fd_sc_hd__or2_2
*I *1283:Q O *D sky130_fd_sc_hd__dfxtp_2
*CAP
1 *1087:A 1.69673e-05
2 *1432:A 0.000195465
3 *1088:A 0.000244269
4 *1126:A1 2.83567e-05
5 *1128:A 4.07703e-05
6 *1283:Q 0.000433721
7 *342:21 0.000314219
8 *342:19 0.000297148
9 *342:8 0.000551548
10 *1087:A *1087:C 4.89395e-05
11 *1088:A *1088:C 8.53011e-05
12 *1432:A *343:23 0.000200229
13 *1122:B *342:19 2.69443e-06
14 *1283:D *342:8 1.50897e-05
15 *1330:CLK *1128:A 4.90227e-05
16 *1330:CLK *342:8 8.34281e-06
17 *1381:A *342:21 0.000136685
18 *139:12 *1088:A 4.77769e-05
19 *139:16 *1088:A 0.000146953
20 *139:22 *1126:A1 2.0172e-05
21 *139:22 *342:19 5.42475e-05
22 *139:22 *342:21 4.58262e-06
23 *243:20 *342:8 0.000154752
24 *243:24 *342:8 0.000169845
25 *264:33 *342:19 0.000123821
26 *264:39 *1126:A1 7.21262e-05
27 *264:39 *342:19 2.98644e-05
28 *264:39 *342:21 0.000157418
*RES
1 *1283:Q *342:8 7.585 
2 *342:8 *1128:A 2.395 
3 *342:8 *342:19 3.89 
4 *342:19 *342:21 1.89 
5 *342:21 *1126:A1 4.47 
6 *342:21 *1088:A 8.19 
7 *342:19 *1432:A 7.155 
8 *1432:A *1087:A 3.65 
*END

*D_NET *343 0.00340964
*CONN
*I *1087:C I *D sky130_fd_sc_hd__nor3_2
*I *1088:C I *D sky130_fd_sc_hd__or3_2
*I *1380:A I *D sky130_fd_sc_hd__dlygate4sd3_1
*I *1282:Q O *D sky130_fd_sc_hd__dfxtp_2
*CAP
1 *1087:C 0.000191156
2 *1088:C 0.000202812
3 *1380:A 9.30497e-05
4 *1282:Q 0.0001934
5 *343:23 0.00113973
6 *343:6 0.00103221
7 *1087:A *1087:C 4.89395e-05
8 *1088:A *1088:C 8.53011e-05
9 *1122:A *343:23 4.89395e-05
10 *1212:C *343:6 1.34618e-05
11 *1282:CLK *343:23 1.19928e-05
12 *1282:D *343:23 0.000144132
13 *1432:A *343:23 0.000200229
14 *139:12 *1088:C 4.28112e-06
*RES
1 *1282:Q *343:6 3.775 
2 *343:6 *1380:A 6.98 
3 *343:6 *343:23 9.885 
4 *343:23 *1088:C 9.05 
5 *343:23 *1087:C 4.48 
*END

*D_NET *344 0.00650557
*CONN
*I *1422:A I *D sky130_fd_sc_hd__dlygate4sd3_1
*I *1100:B I *D sky130_fd_sc_hd__or2_2
*I *1114:B I *D sky130_fd_sc_hd__and3_2
*I *1091:A_N I *D sky130_fd_sc_hd__and4bb_2
*I *1115:B I *D sky130_fd_sc_hd__and4_2
*I *1293:Q O *D sky130_fd_sc_hd__dfxtp_2
*CAP
1 *1422:A 9.27769e-05
2 *1100:B 1.83028e-05
3 *1114:B 9.48369e-05
4 *1091:A_N 0.000300533
5 *1115:B 0.000187445
6 *1293:Q 7.03278e-05
7 *344:18 0.000546864
8 *344:16 0.000273618
9 *344:14 0.000825195
10 *344:6 0.000850101
11 *1091:A_N *1091:C 0.00026755
12 *1115:B *1115:C 8.28018e-06
13 *1115:B *1115:D 3.0933e-05
14 *1115:B *1146:A3 0.000179301
15 *344:14 *1146:A3 0.000170477
16 *344:14 *1150:A2 0
17 *344:14 *368:69 0
18 *344:16 *1146:A3 0.000438697
19 *344:18 *1146:A3 0.000172906
20 *1100:A *344:16 0.000339886
21 *1102:D *1115:B 0.000151756
22 *1102:D *344:18 8.33066e-06
23 *1113:B *1422:A 0
24 *1115:A *1115:B 0.00021044
25 *1145:A *1115:B 1.43622e-05
26 *1150:C1 *1100:B 1.56428e-05
27 *1293:CLK *344:14 1.36296e-05
28 *1293:D *344:14 7.82691e-05
29 *1452:A *1422:A 0
30 *97:6 *1114:B 6.71882e-05
31 *114:10 *1091:A_N 5.09431e-05
32 *116:10 *1115:B 0.000438301
33 *116:18 *344:14 5.21627e-05
34 *116:18 *344:16 5.35498e-05
35 *116:18 *344:18 9.31538e-05
36 *116:29 *344:14 8.98657e-05
37 *133:6 *1115:B 2.69153e-05
38 *133:10 *1115:B 1.11025e-05
39 *142:12 *344:14 0
40 *142:38 *1100:B 4.66108e-05
41 *178:10 *344:14 5.53249e-06
42 *243:65 *1091:A_N 0.00020978
*RES
1 *1293:Q *344:6 2.395 
2 *344:6 *344:14 13.55 
3 *344:14 *344:16 5.205 
4 *344:16 *344:18 2.145 
5 *344:18 *1115:B 10.8 
6 *344:18 *1091:A_N 8.91 
7 *344:16 *1114:B 4.74 
8 *344:14 *1100:B 4.05 
9 *344:6 *1422:A 6.98 
*END

*D_NET *345 0.00146886
*CONN
*I *1114:C I *D sky130_fd_sc_hd__and3_2
*I *1072:A I *D sky130_fd_sc_hd__inv_2
*I *1091:B_N I *D sky130_fd_sc_hd__and4bb_2
*I *1115:C I *D sky130_fd_sc_hd__and4_2
*I *1292:Q O *D sky130_fd_sc_hd__dfxtp_2
*CAP
1 *1114:C 8.41434e-05
2 *1072:A 0
3 *1091:B_N 0
4 *1115:C 0.000106154
5 *1292:Q 3.32283e-05
6 *345:32 0.000180109
7 *345:10 0.000186755
8 *345:6 0.000209795
9 *1115:C *1115:D 1.14192e-05
10 *345:10 *1146:A3 0
11 *1113:A *1114:C 2.05056e-05
12 *1115:A *1115:C 0.000114441
13 *1115:B *1115:C 8.28018e-06
14 *1148:A *1114:C 1.08758e-05
15 *97:6 *1114:C 0.00015639
16 *340:19 *345:6 5.83121e-06
17 *340:19 *345:32 0
18 *340:23 *1115:C 9.12494e-06
19 *340:23 *345:10 0.000152554
20 *340:43 *1114:C 0.000121437
21 *340:43 *345:6 1.19928e-05
22 *340:43 *345:32 4.58257e-05
*RES
1 *1292:Q *345:6 2.05 
2 *345:6 *345:10 3.89 
3 *345:10 *1115:C 5.43 
4 *345:10 *1091:B_N 3.6 
5 *345:6 *345:32 1.755 
6 *345:32 *1072:A 1.6 
7 *345:32 *1114:C 3.79 
*END

*D_NET *346 0.00405172
*CONN
*I *1144:A I *D sky130_fd_sc_hd__nor2_2
*I *1101:B I *D sky130_fd_sc_hd__or3_2
*I *1146:A2 I *D sky130_fd_sc_hd__a32o_2
*I *1115:D I *D sky130_fd_sc_hd__and4_2
*I *1091:C I *D sky130_fd_sc_hd__and4bb_2
*I *1291:Q O *D sky130_fd_sc_hd__dfxtp_2
*CAP
1 *1144:A 0
2 *1101:B 5.70336e-05
3 *1146:A2 3.00342e-05
4 *1115:D 0.000197662
5 *1091:C 0.000213982
6 *1291:Q 0.000444353
7 *346:25 0.00028854
8 *346:21 0.000128914
9 *346:17 3.11685e-05
10 *346:8 0.000678467
11 *1146:A2 *1146:A3 4.42148e-05
12 *1091:A_N *1091:C 0.00026755
13 *1101:C *1101:B 3.75034e-05
14 *1101:C *346:25 5.31158e-06
15 *1115:B *1115:D 3.0933e-05
16 *1115:C *1115:D 1.14192e-05
17 *1145:A *1101:B 7.27194e-05
18 *1145:A *1115:D 0.000303281
19 *1145:A *1146:A2 3.63576e-05
20 *1145:A *346:25 0.000131525
21 *1145:B *346:8 4.77769e-05
22 *1146:A1 *1115:D 0.000122817
23 *1146:A1 *1146:A2 0.000158556
24 *1146:A1 *346:25 3.5998e-05
25 *1146:B1 *1146:A2 1.50085e-05
26 *1291:CLK *346:8 4.12775e-05
27 *1291:D *346:8 0.000163393
28 *133:6 *1115:D 4.77769e-05
29 *243:65 *1091:C 0.000268718
30 *243:65 *1101:B 2.75145e-05
31 *243:65 *346:8 6.53053e-05
32 *243:65 *346:21 4.66108e-05
*RES
1 *1291:Q *346:8 8.965 
2 *346:8 *1091:C 6.535 
3 *346:8 *346:17 0.36 
4 *346:17 *346:21 2.45 
5 *346:21 *346:25 3.635 
6 *346:25 *1115:D 5.86 
7 *346:25 *1146:A2 3.085 
8 *346:21 *1101:B 4.92 
9 *346:17 *1144:A 1.6 
*END

*D_NET *347 0.0022208
*CONN
*I *1400:A I *D sky130_fd_sc_hd__dlygate4sd3_1
*I *1089:B I *D sky130_fd_sc_hd__nor4_2
*I *1116:A I *D sky130_fd_sc_hd__and2_2
*I *1090:B I *D sky130_fd_sc_hd__or4_2
*I *1117:B I *D sky130_fd_sc_hd__and2_2
*I *1290:Q O *D sky130_fd_sc_hd__dfxtp_2
*CAP
1 *1400:A 7.74967e-05
2 *1089:B 0
3 *1116:A 0.000263625
4 *1090:B 0
5 *1117:B 0
6 *1290:Q 0.000110571
7 *347:29 0.00036602
8 *347:23 0.000231282
9 *347:12 0.000145472
10 *347:10 0.000204654
11 *1116:A *1090:A 2.16917e-05
12 *1116:A *1090:C 1.08758e-05
13 *1116:A *1090:D 3.45588e-05
14 *1400:A *348:14 0.000188957
15 *347:12 *348:14 4.99619e-05
16 *347:23 *1089:D 1.91597e-05
17 *347:23 *1090:A 8.65961e-05
18 *347:23 *348:14 2.55546e-05
19 *347:23 *348:16 8.8266e-05
20 *347:29 *1089:C 0.0001032
21 *347:29 *1090:A 0.000162332
22 *347:29 *349:47 0
23 *347:29 *350:37 3.05295e-05
24 *113:8 *347:10 0
25 *133:10 *347:10 0
*RES
1 *1290:Q *347:10 7.235 
2 *347:10 *347:12 0.45 
3 *347:12 *1117:B 1.6 
4 *347:12 *347:23 2.895 
5 *347:23 *347:29 6.655 
6 *347:29 *1090:B 1.6 
7 *347:29 *1116:A 5.53 
8 *347:23 *1089:B 1.6 
9 *347:10 *1400:A 3.43 
*END

*D_NET *348 0.0034465
*CONN
*I *1374:A I *D sky130_fd_sc_hd__dlygate4sd3_1
*I *1117:A I *D sky130_fd_sc_hd__and2_2
*I *1089:A I *D sky130_fd_sc_hd__nor4_2
*I *1090:A I *D sky130_fd_sc_hd__or4_2
*I *1289:Q O *D sky130_fd_sc_hd__dfxtp_2
*CAP
1 *1374:A 9.22799e-05
2 *1117:A 0
3 *1089:A 0
4 *1090:A 0.000114957
5 *1289:Q 6.8658e-05
6 *348:16 0.000133558
7 *348:14 0.000947548
8 *348:6 0.00108988
9 *1090:A *1089:D 0.000129444
10 *1090:A *1090:C 4.82863e-05
11 *1090:A *349:47 1.22762e-05
12 *348:16 *1089:D 3.66286e-05
13 *1116:A *1090:A 2.16917e-05
14 *1141:B1 *1374:A 0
15 *1142:A1 *348:14 4.82919e-05
16 *1289:CLK *348:14 4.92935e-05
17 *1289:D *348:14 5.20335e-05
18 *1400:A *348:14 0.000188957
19 *347:12 *348:14 4.99619e-05
20 *347:23 *1090:A 8.65961e-05
21 *347:23 *348:14 2.55546e-05
22 *347:23 *348:16 8.8266e-05
23 *347:29 *1090:A 0.000162332
*RES
1 *1289:Q *348:6 2.395 
2 *348:6 *348:14 12.315 
3 *348:14 *348:16 0.795 
4 *348:16 *1090:A 9.08 
5 *348:16 *1089:A 1.6 
6 *348:14 *1117:A 1.6 
7 *348:6 *1374:A 6.98 
*END

*D_NET *349 0.00449956
*CONN
*I *1138:B1 I *D sky130_fd_sc_hd__a21o_2
*I *1118:A I *D sky130_fd_sc_hd__and3_2
*I *1089:D I *D sky130_fd_sc_hd__nor4_2
*I *1090:D I *D sky130_fd_sc_hd__or4_2
*I *1119:B I *D sky130_fd_sc_hd__and4_2
*I *1288:Q O *D sky130_fd_sc_hd__dfxtp_2
*CAP
1 *1138:B1 0
2 *1118:A 0
3 *1089:D 0.000291403
4 *1090:D 4.73395e-05
5 *1119:B 0.000350084
6 *1288:Q 0.00051893
7 *349:47 0.000499742
8 *349:26 0.000665774
9 *349:16 0.000335727
10 *349:12 0.000699967
11 *1119:B *350:37 0
12 *349:47 *350:37 0
13 *1090:A *1089:D 0.000129444
14 *1090:A *349:47 1.22762e-05
15 *1116:A *1090:D 3.45588e-05
16 *1119:C *1119:B 9.46121e-05
17 *1119:C *349:47 3.983e-05
18 *1119:D *1119:B 3.45679e-05
19 *1136:A1 *1119:B 0.000116165
20 *1136:A2 *1119:B 0
21 *1136:B1 *1119:B 0
22 *1138:A1 *349:16 2.71072e-05
23 *1138:A2 *349:16 0.000201503
24 *1138:A2 *349:26 5.8493e-05
25 *1139:B *349:12 4.40812e-05
26 *1139:C *349:12 9.37731e-05
27 *1288:D *349:12 7.70553e-06
28 *133:10 *1089:D 0
29 *135:8 *1089:D 0
30 *135:8 *349:47 0
31 *136:10 *1119:B 0
32 *136:10 *349:26 8.65961e-05
33 *264:96 *349:26 5.40939e-05
34 *347:23 *1089:D 1.91597e-05
35 *347:29 *349:47 0
36 *348:16 *1089:D 3.66286e-05
*RES
1 *1288:Q *349:12 11.915 
2 *349:12 *349:16 3.225 
3 *349:16 *349:26 5 
4 *349:26 *1119:B 10.2 
5 *349:26 *349:47 2.91 
6 *349:47 *1090:D 4.395 
7 *349:47 *1089:D 8.205 
8 *349:16 *1118:A 1.6 
9 *349:12 *1138:B1 1.6 
*END

*D_NET *350 0.002145
*CONN
*I *1089:C I *D sky130_fd_sc_hd__nor4_2
*I *1090:C I *D sky130_fd_sc_hd__or4_2
*I *1395:A I *D sky130_fd_sc_hd__dlygate4sd3_1
*I *1119:A I *D sky130_fd_sc_hd__and4_2
*I *1287:Q O *D sky130_fd_sc_hd__dfxtp_2
*CAP
1 *1089:C 6.66684e-05
2 *1090:C 4.51435e-05
3 *1395:A 4.31542e-05
4 *1119:A 7.42202e-05
5 *1287:Q 0.00048683
6 *350:37 0.00044215
7 *350:6 0.000273867
8 *1089:C *351:21 0
9 *1090:A *1090:C 4.82863e-05
10 *1116:A *1090:C 1.08758e-05
11 *1119:B *350:37 0
12 *1119:D *1119:A 6.36656e-05
13 *1136:B1 *350:37 0
14 *1139:B *1119:A 0
15 *1139:C *1119:A 0
16 *1288:CLK *1395:A 2.75229e-05
17 *1288:CLK *350:6 0.000154098
18 *1288:CLK *350:37 0.000118294
19 *113:8 *1089:C 0.000117832
20 *136:10 *350:37 3.86607e-05
21 *264:69 *1089:C 0
22 *264:69 *350:37 0
23 *347:29 *1089:C 0.0001032
24 *347:29 *350:37 3.05295e-05
25 *349:47 *350:37 0
*RES
1 *1287:Q *350:6 4.12 
2 *350:6 *1119:A 6.98 
3 *350:6 *1395:A 2.41 
4 *1287:Q *350:37 8.85 
5 *350:37 *1090:C 4.395 
6 *350:37 *1089:C 5.745 
*END

*D_NET *351 0.00279059
*CONN
*I *1086:B I *D sky130_fd_sc_hd__or2_2
*I *1085:B I *D sky130_fd_sc_hd__nor2_2
*I *1121:B I *D sky130_fd_sc_hd__and4_2
*I *1120:B I *D sky130_fd_sc_hd__and3_2
*I *1132:A1 I *D sky130_fd_sc_hd__a21o_2
*I *1384:A I *D sky130_fd_sc_hd__dlygate4sd3_1
*I *1286:Q O *D sky130_fd_sc_hd__dfxtp_2
*CAP
1 *1086:B 0
2 *1085:B 0
3 *1121:B 0
4 *1120:B 0
5 *1132:A1 4.42966e-05
6 *1384:A 3.63983e-05
7 *1286:Q 8.83727e-05
8 *351:43 0.000223756
9 *351:33 0.000372909
10 *351:25 0.000289951
11 *351:21 0.000216919
12 *351:8 0.000245189
13 *1132:A1 *352:10 5.53249e-06
14 *1132:A1 *352:25 7.63125e-05
15 *351:25 *1086:A 4.82863e-05
16 *351:25 *352:47 4.76295e-05
17 *351:33 *352:47 0.000329366
18 *351:43 *352:25 6.18832e-05
19 *1089:C *351:21 0
20 *1121:C *351:43 7.92152e-05
21 *1121:D *351:43 6.0691e-05
22 *1130:A1 *351:43 4.82919e-05
23 *1130:A2 *351:43 0
24 *1135:A1 *351:8 0
25 *1135:B1 *351:8 0
26 *113:8 *351:21 0
27 *137:37 *1132:A1 0.000140912
28 *137:37 *351:43 7.63883e-05
29 *242:18 *351:33 0.000197264
30 *242:18 *351:43 1.44259e-05
31 *264:69 *1384:A 8.65961e-05
32 *264:69 *351:8 0
*RES
1 *1286:Q *351:8 4.98 
2 *351:8 *1384:A 4.395 
3 *351:8 *351:21 3.89 
4 *351:21 *351:25 1.845 
5 *351:25 *351:33 5.07 
6 *351:33 *351:43 6.005 
7 *351:43 *1132:A1 5.235 
8 *351:43 *1120:B 3.6 
9 *351:33 *1121:B 1.6 
10 *351:25 *1085:B 1.6 
11 *351:21 *1086:B 1.6 
*END

*D_NET *352 0.00293745
*CONN
*I *1086:A I *D sky130_fd_sc_hd__or2_2
*I *1085:A I *D sky130_fd_sc_hd__nor2_2
*I *1121:A I *D sky130_fd_sc_hd__and4_2
*I *1120:A I *D sky130_fd_sc_hd__and3_2
*I *1132:B1 I *D sky130_fd_sc_hd__a21o_2
*I *1285:Q O *D sky130_fd_sc_hd__dfxtp_2
*CAP
1 *1086:A 6.35781e-05
2 *1085:A 0
3 *1121:A 0
4 *1120:A 0
5 *1132:B1 0
6 *1285:Q 0.000147984
7 *352:47 0.000340451
8 *352:38 0.000447557
9 *352:25 0.000397827
10 *352:10 0.000375127
11 *1120:C *352:25 5.78262e-05
12 *1121:C *352:38 0
13 *1130:A1 *352:38 1.22762e-05
14 *1130:A2 *352:25 4.99961e-05
15 *1132:A1 *352:10 5.53249e-06
16 *1132:A1 *352:25 7.63125e-05
17 *1133:A_N *352:10 1.01661e-05
18 *1133:A_N *352:25 5.00612e-05
19 *1133:C *352:10 5.39718e-05
20 *1134:A2 *352:38 8.40269e-05
21 *137:26 *352:10 4.05182e-05
22 *137:37 *352:10 5.98004e-06
23 *137:48 *352:25 1.46828e-05
24 *137:48 *352:38 4.82863e-05
25 *242:18 *352:38 0.00013994
26 *264:58 *352:25 2.8185e-05
27 *351:25 *1086:A 4.82863e-05
28 *351:25 *352:47 4.76295e-05
29 *351:33 *352:47 0.000329366
30 *351:43 *352:25 6.18832e-05
*RES
1 *1285:Q *352:10 6.12 
2 *352:10 *1132:B1 3.6 
3 *352:10 *352:25 6.755 
4 *352:25 *1120:A 1.6 
5 *352:25 *352:38 7.285 
6 *352:38 *1121:A 1.6 
7 *352:38 *352:47 5.205 
8 *352:47 *1085:A 1.6 
9 *352:47 *1086:A 2.74 
*END

*D_NET *353 0.00519053
*CONN
*I *1199:B I *D sky130_fd_sc_hd__nor3_2
*I *1200:B I *D sky130_fd_sc_hd__or4_2
*I *1096:B I *D sky130_fd_sc_hd__nand2_2
*I *1069:A I *D sky130_fd_sc_hd__inv_2
*I *1178:A1 I *D sky130_fd_sc_hd__o211a_2
*I *1189:B I *D sky130_fd_sc_hd__nor3_2
*I *1190:B I *D sky130_fd_sc_hd__or4_2
*I *1307:Q O *D sky130_fd_sc_hd__dfxtp_2
*CAP
1 *1199:B 6.58677e-05
2 *1200:B 8.76197e-05
3 *1096:B 0
4 *1069:A 0
5 *1178:A1 0.00029818
6 *1189:B 0.000120338
7 *1190:B 0.000240015
8 *1307:Q 3.58965e-05
9 *353:73 0.000290454
10 *353:42 0.000328706
11 *353:40 0.000291505
12 *353:34 0.000496031
13 *353:21 0.000294032
14 *353:8 0.00035152
15 *1189:B *1189:A 4.82919e-05
16 *1190:B *1190:A 0.000225189
17 *1199:B *1199:A 0.000141599
18 *1200:B *354:73 5.07419e-05
19 *353:21 *1190:A 0.000273695
20 *353:34 *1190:A 3.09233e-05
21 *353:34 *354:75 0.000175901
22 *353:73 *1199:A 6.68849e-05
23 *353:73 *354:75 0.000179015
24 *1178:A2 *1178:A1 1.89014e-05
25 *1182:A2 *1178:A1 2.15594e-05
26 *1182:B1 *1178:A1 7.06865e-05
27 *1183:A *353:40 0
28 *1183:B *1178:A1 5.42473e-05
29 *1191:A2 *1189:B 1.16578e-05
30 *1200:C *1199:B 0
31 *1200:C *353:73 0
32 *1369:A *1178:A1 0
33 *94:8 *1178:A1 3.45679e-05
34 *119:6 *353:40 0.000253946
35 *120:8 *1190:B 1.0183e-05
36 *158:16 *1190:B 0.000124895
37 *179:39 *1189:B 8.82473e-05
38 *185:8 *1190:B 0
39 *185:38 *1190:B 0
40 *185:38 *353:34 0
41 *185:38 *353:73 0
42 *185:47 *353:73 0
43 *239:161 *1178:A1 0
44 *239:179 *1178:A1 0
45 *246:12 *1190:B 3.05373e-05
46 *246:12 *353:8 2.75145e-05
47 *246:12 *353:21 0.000102184
48 *246:38 *353:21 5.20968e-05
49 *246:46 *1178:A1 3.47837e-05
50 *269:38 *1178:A1 7.35813e-05
51 *269:38 *353:40 3.79945e-05
52 *269:38 *353:42 5.05437e-05
*RES
1 *1307:Q *353:8 4.05 
2 *353:8 *1190:B 8.16 
3 *353:8 *353:21 3.165 
4 *353:21 *1189:B 5.79 
5 *353:21 *353:34 2.4 
6 *353:34 *353:40 7.295 
7 *353:40 *353:42 0.795 
8 *353:42 *1178:A1 11.6788 
9 *353:42 *1069:A 1.6 
10 *353:40 *1096:B 1.6 
11 *353:34 *353:73 2.91 
12 *353:73 *1200:B 4.74 
13 *353:73 *1199:B 5.235 
*END

*D_NET *354 0.00684336
*CONN
*I *1199:A I *D sky130_fd_sc_hd__nor3_2
*I *1189:A I *D sky130_fd_sc_hd__nor3_2
*I *1190:A I *D sky130_fd_sc_hd__or4_2
*I *1200:A I *D sky130_fd_sc_hd__or4_2
*I *1096:A I *D sky130_fd_sc_hd__nand2_2
*I *1182:A1 I *D sky130_fd_sc_hd__a22o_2
*I *1180:A I *D sky130_fd_sc_hd__or2_2
*I *1179:A I *D sky130_fd_sc_hd__nand2_2
*I *1308:Q O *D sky130_fd_sc_hd__dfxtp_2
*CAP
1 *1199:A 9.223e-05
2 *1189:A 9.71884e-06
3 *1190:A 0.000310098
4 *1200:A 0
5 *1096:A 0
6 *1182:A1 0
7 *1180:A 2.08101e-05
8 *1179:A 0.000173815
9 *1308:Q 0
10 *354:75 0.000473785
11 *354:73 0.000306418
12 *354:64 0.000346208
13 *354:28 0.000480364
14 *354:20 0.000558627
15 *354:10 0.000385053
16 *354:4 0.000398153
17 *1182:A2 *354:20 2.66362e-05
18 *1182:A2 *354:28 4.75576e-05
19 *1182:B1 *354:20 0.000120655
20 *1189:B *1189:A 4.82919e-05
21 *1190:B *1190:A 0.000225189
22 *1190:D *1190:A 0.000162311
23 *1191:A2 *1190:A 0
24 *1191:B1 *1190:A 4.66742e-05
25 *1199:B *1199:A 0.000141599
26 *1200:B *354:73 5.07419e-05
27 *1201:B1 *354:64 1.85674e-05
28 *1201:B1 *354:73 8.40213e-05
29 *1207:C1 *1179:A 0.000316813
30 *1308:CLK *1179:A 0
31 *1369:A *354:28 7.10578e-05
32 *119:10 *354:75 1.07797e-05
33 *173:36 *1179:A 0.00011852
34 *179:25 *1190:A 0
35 *179:39 *1189:A 4.82919e-05
36 *179:39 *354:20 0.000268086
37 *179:89 *354:75 0
38 *185:38 *354:10 0
39 *185:38 *354:20 0
40 *239:179 *354:10 5.84456e-05
41 *239:179 *354:20 0.000112097
42 *246:38 *354:20 0.000124007
43 *246:46 *354:20 4.82919e-05
44 *246:76 *1179:A 0
45 *247:98 *1199:A 8.23457e-05
46 *269:38 *1199:A 8.53113e-06
47 *269:38 *354:75 0.000114492
48 *269:57 *1199:A 0.000200648
49 *272:23 *1179:A 7.00889e-06
50 *353:21 *1190:A 0.000273695
51 *353:34 *1190:A 3.09233e-05
52 *353:34 *354:75 0.000175901
53 *353:73 *1199:A 6.68849e-05
54 *353:73 *354:75 0.000179015
*RES
1 *1308:Q *354:4 1.6 
2 *354:4 *354:10 3.83 
3 *354:10 *354:20 8.765 
4 *354:20 *354:28 7.645 
5 *354:28 *1179:A 9.725 
6 *354:28 *1180:A 1.96 
7 *354:20 *1182:A1 1.6 
8 *354:10 *1096:A 3.6 
9 *354:4 *354:64 3.48 
10 *354:64 *1200:A 1.6 
11 *354:64 *354:73 3.485 
12 *354:73 *354:75 4.185 
13 *354:75 *1190:A 11.055 
14 *354:75 *1189:A 4.05 
15 *354:73 *1199:A 6.795 
*END

*D_NET *355 0.00335501
*CONN
*I *1068:A I *D sky130_fd_sc_hd__inv_2
*I *1188:C1 I *D sky130_fd_sc_hd__a211o_2
*I *1184:A1 I *D sky130_fd_sc_hd__a22o_2
*I *1309:Q O *D sky130_fd_sc_hd__dfxtp_2
*CAP
1 *1068:A 0.00011775
2 *1188:C1 0.000105952
3 *1184:A1 0
4 *1309:Q 0.000575954
5 *355:16 0.000364842
6 *355:8 0.000952593
7 *1097:A *1068:A 8.49205e-05
8 *1184:A2 *1188:C1 0.000191649
9 *1184:A2 *355:16 3.30832e-05
10 *1184:B1 *1188:C1 7.60965e-05
11 *1184:B1 *355:16 3.26889e-05
12 *1184:B2 *1188:C1 9.14049e-05
13 *1185:B *1068:A 5.92191e-05
14 *1185:B *355:16 4.58406e-05
15 *1186:A *355:16 5.21545e-05
16 *1186:B *355:16 7.60965e-05
17 *1186:C *355:8 8.73389e-06
18 *1198:C1 *355:8 1.4399e-05
19 *1309:CLK *1068:A 2.15594e-05
20 *1309:CLK *355:8 2.49909e-05
21 *1309:D *355:8 3.51254e-06
22 *93:12 *1068:A 7.06865e-05
23 *93:12 *355:16 7.70758e-05
24 *116:29 *355:16 0
25 *120:8 *1188:C1 4.03257e-05
26 *158:16 *1068:A 0.000120655
27 *178:10 *1188:C1 0.000112825
*RES
1 *1309:Q *355:8 9.915 
2 *355:8 *355:16 7.445 
3 *355:16 *1184:A1 1.6 
4 *355:16 *1188:C1 9.08 
5 *355:8 *1068:A 6.48 
*END

*D_NET *356 0.000294845
*CONN
*I *1391:A I *D sky130_fd_sc_hd__dlygate4sd3_1
*I *1310:Q O *D sky130_fd_sc_hd__dfxtp_2
*CAP
1 *1391:A 2.72359e-05
2 *1310:Q 2.72359e-05
3 *1296:D *1391:A 0.000120186
4 *158:27 *1391:A 0.000120186
*RES
1 *1310:Q *1391:A 8.58 
*END

*D_NET *357 0.000538218
*CONN
*I *1378:A I *D sky130_fd_sc_hd__dlygate4sd3_1
*I *1311:Q O *D sky130_fd_sc_hd__dfxtp_2
*CAP
1 *1378:A 0.000103729
2 *1311:Q 0.000103729
3 *1378:A *1367:A 0.000115464
4 *1192:B1_N *1378:A 1.91597e-05
5 *159:27 *1378:A 0.00011379
6 *268:31 *1378:A 8.23457e-05
*RES
1 *1311:Q *1378:A 9.72 
*END

*D_NET *358 0.00139188
*CONN
*I *1387:A I *D sky130_fd_sc_hd__dlygate4sd3_1
*I *1312:Q O *D sky130_fd_sc_hd__dfxtp_2
*CAP
1 *1387:A 0.000310457
2 *1312:Q 0.000310457
3 *1207:C1 *1387:A 4.66826e-05
4 *1446:A *1387:A 0.000130721
5 *158:63 *1387:A 0.000312771
6 *185:66 *1387:A 9.46111e-06
7 *253:10 *1387:A 0.000271334
8 *289:10 *1387:A 0
*RES
1 *1312:Q *1387:A 14.145 
*END

*D_NET *359 0.00261509
*CONN
*I *1389:A I *D sky130_fd_sc_hd__dlygate4sd3_1
*I *1313:Q O *D sky130_fd_sc_hd__dfxtp_2
*CAP
1 *1389:A 0.000497943
2 *1313:Q 0.000497943
3 *1157:A1 *1389:A 4.30026e-05
4 *1157:A2 *1389:A 0.000653585
5 *1157:B1 *1389:A 4.82919e-05
6 *1157:C1 *1389:A 4.82919e-05
7 *1162:B *1389:A 5.4239e-05
8 *1165:B1 *1389:A 0.000385365
9 *158:27 *1389:A 0
10 *158:31 *1389:A 5.43211e-05
11 *159:91 *1389:A 0.000332107
*RES
1 *1313:Q *1389:A 21.06 
*END

*D_NET *360 0.000299017
*CONN
*I *1392:A I *D sky130_fd_sc_hd__dlygate4sd3_1
*I *1314:Q O *D sky130_fd_sc_hd__dfxtp_2
*CAP
1 *1392:A 3.16766e-05
2 *1314:Q 3.16766e-05
3 *1165:B1 *1392:A 0.000117832
4 *158:31 *1392:A 0.000117832
*RES
1 *1314:Q *1392:A 8.58 
*END

*D_NET *361 0.000181184
*CONN
*I *1376:A I *D sky130_fd_sc_hd__dlygate4sd3_1
*I *1315:Q O *D sky130_fd_sc_hd__dfxtp_2
*CAP
1 *1376:A 9.0592e-05
2 *1315:Q 9.0592e-05
3 *1345:CLK *1376:A 0
*RES
1 *1315:Q *1376:A 8.58 
*END

*D_NET *362 0.000385186
*CONN
*I *1382:A I *D sky130_fd_sc_hd__dlygate4sd3_1
*I *1316:Q O *D sky130_fd_sc_hd__dfxtp_2
*CAP
1 *1382:A 0.00014846
2 *1316:Q 0.00014846
3 *1168:A *1382:A 0
4 *1168:B *1382:A 0
5 *1169:A2 *1382:A 8.8266e-05
6 *1204:B1_N *1382:A 0
7 *1312:CLK *1382:A 0
*RES
1 *1316:Q *1382:A 9.375 
*END

*D_NET *363 0.000650118
*CONN
*I *1385:A I *D sky130_fd_sc_hd__dlygate4sd3_1
*I *1317:Q O *D sky130_fd_sc_hd__dfxtp_2
*CAP
1 *1385:A 0.000217324
2 *1317:Q 0.000217324
3 *1170:A *1385:A 0.00010131
4 *1171:B1 *1385:A 5.30673e-05
5 *1206:B1_N *1385:A 0
6 *1451:A *1385:A 6.10941e-05
*RES
1 *1317:Q *1385:A 11.415 
*END

*D_NET *364 0.000788283
*CONN
*I *1373:A I *D sky130_fd_sc_hd__dlygate4sd3_1
*I *1304:Q O *D sky130_fd_sc_hd__dfxtp_2
*CAP
1 *1373:A 0.000394141
2 *1304:Q 0.000394141
*RES
1 *1304:Q *1373:A 8.495 
*END

*D_NET *365 0.00525267
*CONN
*I *1367:A I *D sky130_fd_sc_hd__clkdlybuf4s25_1
*I *1366:A I *D sky130_fd_sc_hd__clkdlybuf4s25_1
*I *1305:Q O *D sky130_fd_sc_hd__dfxtp_2
*CAP
1 *1367:A 0.00111536
2 *1366:A 8.69466e-05
3 *1305:Q 0.000403983
4 *365:10 0.00160629
5 *1366:A *368:6 5.30673e-05
6 *1367:A *1105:C 0
7 *365:10 *367:27 0
8 *1104:B *1367:A 0
9 *1106:B1 *1367:A 0
10 *1106:B1 *365:10 0
11 *1159:A1 *1367:A 0.000250623
12 *1205:C1 *1367:A 8.63479e-05
13 *1345:D *1367:A 0
14 *1347:CLK *1367:A 0
15 *1377:A *1367:A 0
16 *1378:A *1367:A 0.000115464
17 *124:30 *365:10 2.11084e-05
18 *124:34 *365:10 0.000162575
19 *159:10 *1367:A 0.000231557
20 *159:27 *1367:A 0.000765014
21 *159:38 *1367:A 0.000152127
22 *239:23 *1367:A 0
23 *266:12 *1366:A 4.58257e-05
24 *266:81 *1367:A 0
25 *267:17 *1367:A 0.00015639
26 *272:12 *1367:A 0
27 *272:57 *1367:A 0
*RES
1 *1305:Q *365:10 9.135 
2 *365:10 *1366:A 5.43 
3 *365:10 *1367:A 27.375 
*END

*D_NET *366 0.00106283
*CONN
*I *1105:B I *D sky130_fd_sc_hd__and3b_2
*I *1407:A I *D sky130_fd_sc_hd__dlygate4sd3_1
*I *1306:Q O *D sky130_fd_sc_hd__dfxtp_2
*CAP
1 *1105:B 0.000157047
2 *1407:A 1.88809e-05
3 *1306:Q 0.000186222
4 *366:6 0.00036215
5 *1106:B1 *1105:B 2.7441e-05
6 *1106:B1 *366:6 0.00023344
7 *127:23 *1105:B 7.22354e-05
8 *127:23 *1407:A 5.4155e-06
*RES
1 *1306:Q *366:6 5.155 
2 *366:6 *1407:A 1.96 
3 *366:6 *1105:B 3.79 
*END

*D_NET *367 0.0047282
*CONN
*I *1105:C I *D sky130_fd_sc_hd__and3b_2
*I *1076:A I *D sky130_fd_sc_hd__inv_2
*I *1187:A I *D sky130_fd_sc_hd__or2_2
*I *1418:A I *D sky130_fd_sc_hd__dlygate4sd3_1
*I *1344:Q O *D sky130_fd_sc_hd__dfxtp_2
*CAP
1 *1105:C 8.58948e-05
2 *1076:A 2.5072e-05
3 *1187:A 0.000789493
4 *1418:A 0.000216817
5 *1344:Q 6.24269e-05
6 *367:31 0.000986585
7 *367:27 0.000485407
8 *367:6 0.000506737
9 *1187:A *1108:C_N 0
10 *1187:A *1152:A2 8.53113e-06
11 *1187:A *1153:B 7.63894e-05
12 *1187:A *1176:C1 1.08758e-05
13 *1187:A *368:17 6.74384e-05
14 *1187:A *368:36 1.88904e-05
15 *1187:A *368:67 0.000231948
16 *1187:A *369:27 0
17 *1187:A *370:22 5.05066e-06
18 *367:31 *368:6 9.91257e-05
19 *367:31 *368:17 6.83863e-05
20 *1108:A *1418:A 0
21 *1108:A *367:27 0
22 *1108:A *367:31 0.0001249
23 *1108:B *1105:C 0
24 *1108:B *367:27 0
25 *1111:B1 *1418:A 0.000119631
26 *1111:C1 *1418:A 8.41703e-06
27 *1153:A *1187:A 4.66108e-05
28 *1153:D *1187:A 2.96334e-05
29 *1155:C *1187:A 9.5799e-06
30 *1176:B1 *1187:A 6.38722e-05
31 *1187:B *1187:A 9.16226e-05
32 *1367:A *1105:C 0
33 *124:30 *1418:A 0
34 *124:30 *367:6 3.45588e-05
35 *124:30 *367:27 4.7101e-05
36 *142:12 *1187:A 0.000157906
37 *239:122 *1187:A 5.05066e-06
38 *266:75 *1105:C 2.66935e-05
39 *266:81 *1105:C 1.43717e-05
40 *300:42 *1418:A 0.000203178
41 *365:10 *367:27 0
*RES
1 *1344:Q *367:6 2.395 
2 *367:6 *1418:A 10.085 
3 *367:6 *367:27 5.225 
4 *367:27 *367:31 5.7275 
5 *367:31 *1187:A 17.7016 
6 *367:31 *1076:A 2.2225 
7 *367:27 *1105:C 5.11875 
*END

*D_NET *368 0.0112298
*CONN
*I *1430:A I *D sky130_fd_sc_hd__dlygate4sd3_1
*I *1174:A1 I *D sky130_fd_sc_hd__a21oi_2
*I *1188:A1 I *D sky130_fd_sc_hd__a211o_2
*I *1198:A1 I *D sky130_fd_sc_hd__a211o_2
*I *1175:A1 I *D sky130_fd_sc_hd__a21o_2
*I *1124:A1 I *D sky130_fd_sc_hd__o21a_2
*I *1150:A2 I *D sky130_fd_sc_hd__o311a_2
*I *1176:C1 I *D sky130_fd_sc_hd__o211a_2
*I *1152:A2 I *D sky130_fd_sc_hd__o311a_2
*I *1108:C_N I *D sky130_fd_sc_hd__or3b_2
*I *1345:Q O *D sky130_fd_sc_hd__dfxtp_2
*CAP
1 *1430:A 0.000306541
2 *1174:A1 0
3 *1188:A1 0.000280211
4 *1198:A1 3.41803e-05
5 *1175:A1 0.000108787
6 *1124:A1 0
7 *1150:A2 0.000349988
8 *1176:C1 5.65581e-05
9 *1152:A2 0.000424544
10 *1108:C_N 2.08101e-05
11 *1345:Q 8.85186e-05
12 *368:108 0.000479056
13 *368:93 0.000453606
14 *368:69 0.00037864
15 *368:67 0.000792532
16 *368:53 0.000598767
17 *368:49 0.000410129
18 *368:36 0.000194889
19 *368:17 0.00059268
20 *368:6 0.00022768
21 *1150:A2 *1123:A 0
22 *1150:A2 *369:27 0
23 *1152:A2 *1111:A1 0
24 *1152:A2 *1152:A1 0
25 *368:53 *370:16 1.91597e-05
26 *368:67 *1153:B 1.91597e-05
27 *368:67 *1420:A 5.83121e-06
28 *368:67 *370:16 0.00023301
29 *1098:B *1188:A1 1.68507e-05
30 *1098:B *368:108 1.47347e-05
31 *1099:A1 *1430:A 4.82863e-05
32 *1108:A *1152:A2 0
33 *1108:A *368:17 0.0001249
34 *1108:B *1152:A2 1.22676e-05
35 *1108:B *368:36 1.73877e-05
36 *1108:B *368:49 0
37 *1111:A2 *1152:A2 1.7635e-05
38 *1112:A1 *1152:A2 6.45317e-05
39 *1124:B1 *1150:A2 1.43521e-05
40 *1124:B1 *368:69 1.82476e-05
41 *1124:B1 *368:93 7.24779e-05
42 *1150:A1 *1150:A2 0
43 *1150:A3 *1150:A2 4.82919e-05
44 *1150:B1 *1150:A2 3.26889e-05
45 *1150:C1 *1150:A2 0.000141685
46 *1153:D *368:67 0.000120655
47 *1155:C *1152:A2 3.9022e-05
48 *1155:C *1430:A 0.000225182
49 *1155:C *368:36 7.8494e-06
50 *1155:C *368:49 0.000158297
51 *1174:A2 *368:49 0.000116158
52 *1175:A2 *1175:A1 4.99619e-05
53 *1176:A1 *1176:C1 6.83659e-05
54 *1176:A1 *368:67 8.53113e-06
55 *1176:A2 *368:67 9.14108e-05
56 *1184:A2 *1175:A1 0.00029048
57 *1184:B1 *1175:A1 0.000465398
58 *1187:A *1108:C_N 0
59 *1187:A *1152:A2 8.53113e-06
60 *1187:A *1176:C1 1.08758e-05
61 *1187:A *368:17 6.74384e-05
62 *1187:A *368:36 1.88904e-05
63 *1187:A *368:67 0.000231948
64 *1198:A2 *368:108 5.83121e-06
65 *1198:B1 *1188:A1 1.33293e-05
66 *1198:B1 *1198:A1 4.87465e-06
67 *1198:C1 *1188:A1 0.000133585
68 *1198:C1 *1198:A1 0
69 *1294:D *1152:A2 0
70 *1295:D *1150:A2 0
71 *1364:A *1150:A2 1.61831e-05
72 *1366:A *368:6 5.30673e-05
73 *1370:A *1430:A 0.000119227
74 *1404:A *1152:A2 5.5709e-05
75 *116:48 *368:108 1.7635e-05
76 *116:63 *1198:A1 0
77 *120:8 *368:108 0
78 *127:23 *368:53 4.66108e-05
79 *127:23 *368:67 7.85634e-05
80 *141:12 *1150:A2 9.30787e-05
81 *142:12 *1150:A2 9.11893e-05
82 *142:16 *1150:A2 0.000258614
83 *170:8 *368:67 4.75576e-05
84 *178:10 *368:93 0
85 *178:10 *368:108 0
86 *239:105 *1430:A 3.00786e-05
87 *239:110 *1430:A 0.000214174
88 *239:153 *1175:A1 5.83121e-06
89 *264:12 *1152:A2 0.000296088
90 *264:22 *1152:A2 4.99619e-05
91 *266:12 *368:6 0.000353831
92 *266:38 *368:6 4.99619e-05
93 *266:38 *368:17 0.000110673
94 *271:19 *368:67 7.67415e-06
95 *271:45 *368:93 5.21627e-05
96 *271:45 *368:108 6.93101e-05
97 *300:42 *1152:A2 8.89156e-05
98 *344:14 *1150:A2 0
99 *344:14 *368:69 0
100 *367:31 *368:6 9.91257e-05
101 *367:31 *368:17 6.83863e-05
*RES
1 *1345:Q *368:6 5.155 
2 *368:6 *1108:C_N 1.96 
3 *368:6 *368:17 4.865 
4 *368:17 *1152:A2 12.36 
5 *368:17 *368:36 1.065 
6 *368:36 *1176:C1 4.74 
7 *368:36 *368:49 2.34 
8 *368:49 *368:53 2.45 
9 *368:53 *368:67 15.63 
10 *368:67 *368:69 0.615 
11 *368:69 *1150:A2 11.715 
12 *368:69 *1124:A1 3.6 
13 *368:67 *368:93 3.675 
14 *368:93 *1175:A1 8.535 
15 *368:93 *368:108 4.85 
16 *368:108 *1198:A1 2.215 
17 *368:108 *1188:A1 5.695 
18 *368:53 *1174:A1 1.6 
19 *368:49 *1430:A 10.515 
*END

*D_NET *369 0.00860449
*CONN
*I *1146:A3 I *D sky130_fd_sc_hd__a32o_2
*I *1123:B I *D sky130_fd_sc_hd__or2_2
*I *1397:A I *D sky130_fd_sc_hd__dlygate4sd3_1
*I *1346:Q O *D sky130_fd_sc_hd__dfxtp_2
*CAP
1 *1146:A3 0.000785957
2 *1123:B 9.73191e-06
3 *1397:A 0
4 *1346:Q 0.000149954
5 *369:27 0.00233606
6 *369:10 0.00169033
7 *1123:B *1123:A 4.82863e-05
8 *369:27 *1123:A 2.9381e-05
9 *1106:B1 *369:10 7.9642e-06
10 *1106:B1 *369:27 5.1787e-05
11 *1111:A2 *369:27 0.0004515
12 *1111:C1 *369:27 0.000536386
13 *1115:B *1146:A3 0.000179301
14 *1145:A *1146:A3 0.000305067
15 *1146:A2 *1146:A3 4.42148e-05
16 *1146:B1 *1146:A3 0.000159566
17 *1150:A1 *1146:A3 1.32017e-05
18 *1150:A1 *369:27 1.01661e-05
19 *1150:A2 *369:27 0
20 *1151:A1 *1123:B 4.82863e-05
21 *1187:A *369:27 0
22 *1295:D *1146:A3 0.000532062
23 *115:35 *369:27 0.000139748
24 *116:10 *1146:A3 3.93467e-05
25 *133:10 *1146:A3 2.98587e-05
26 *141:12 *1146:A3 0.000164874
27 *142:12 *1146:A3 5.93757e-05
28 *340:23 *1146:A3 0
29 *344:14 *1146:A3 0.000170477
30 *344:16 *1146:A3 0.000438697
31 *344:18 *1146:A3 0.000172906
32 *345:10 *1146:A3 0
*RES
1 *1346:Q *369:10 5.685 
2 *369:10 *1397:A 3.6 
3 *369:10 *369:27 5.45827 
4 *369:27 *1123:B 4.05 
5 *369:27 *1146:A3 27.43 
*END

*D_NET *370 0.00894568
*CONN
*I *1095:A I *D sky130_fd_sc_hd__and3_2
*I *1155:B I *D sky130_fd_sc_hd__nand3_2
*I *1154:B I *D sky130_fd_sc_hd__and3_2
*I *1420:A I *D sky130_fd_sc_hd__dlygate4sd3_1
*I *1153:B I *D sky130_fd_sc_hd__and4_2
*I *1123:A I *D sky130_fd_sc_hd__or2_2
*I *1111:A1 I *D sky130_fd_sc_hd__a221o_2
*I *1152:A1 I *D sky130_fd_sc_hd__o311a_2
*I *1347:Q O *D sky130_fd_sc_hd__dfxtp_2
*CAP
1 *1095:A 0.000134736
2 *1155:B 3.90563e-05
3 *1154:B 0.000201265
4 *1420:A 4.98343e-05
5 *1153:B 2.28287e-05
6 *1123:A 0.000298329
7 *1111:A1 3.40305e-05
8 *1152:A1 0.000239172
9 *1347:Q 0
10 *370:91 0.000342576
11 *370:87 0.000428279
12 *370:26 0.000710014
13 *370:22 0.000926041
14 *370:18 0.000262418
15 *370:16 0.000618208
16 *370:4 0.000710974
17 *1095:C *1095:A 5.20981e-05
18 *1108:B *370:16 0.000196634
19 *1112:B1 *370:26 3.3814e-05
20 *1123:B *1123:A 4.82863e-05
21 *1150:A1 *1123:A 0.00011449
22 *1150:A2 *1123:A 0
23 *1150:A3 *1123:A 9.67791e-05
24 *1150:A3 *370:22 1.71013e-05
25 *1151:A1 *1123:A 4.22057e-05
26 *1152:A2 *1111:A1 0
27 *1152:A2 *1152:A1 0
28 *1153:A *370:22 9.14049e-05
29 *1153:C *1420:A 3.05238e-05
30 *1153:C *370:18 2.97204e-05
31 *1153:D *1153:B 4.82919e-05
32 *1153:D *370:18 3.09233e-05
33 *1153:D *370:22 6.21553e-05
34 *1154:C *1154:B 6.88124e-05
35 *1155:C *370:91 0
36 *1174:A2 *370:16 2.50049e-05
37 *1176:A2 *370:22 0
38 *1187:A *1153:B 7.63894e-05
39 *1187:A *370:22 5.05066e-06
40 *1292:D *1123:A 4.66108e-05
41 *1294:D *1152:A1 0
42 *1344:CLK *1111:A1 4.38051e-05
43 *1344:CLK *1152:A1 0.000166346
44 *1364:A *1123:A 4.07951e-05
45 *1364:A *370:26 2.75145e-05
46 *1370:A *1155:B 0
47 *1370:A *370:16 0.00031209
48 *1404:A *1152:A1 5.30673e-05
49 *115:10 *370:22 3.44034e-05
50 *115:35 *370:22 0.000278458
51 *121:8 *1095:A 2.8185e-05
52 *121:8 *370:16 1.56428e-05
53 *121:8 *370:87 0.000108569
54 *127:23 *370:16 4.01778e-05
55 *169:18 *370:91 6.18832e-05
56 *170:8 *1420:A 6.68849e-05
57 *170:8 *370:18 9.30717e-05
58 *239:122 *370:22 0
59 *243:40 *1152:A1 0.000166346
60 *264:12 *370:26 0.000158072
61 *264:22 *1152:A1 0.000168213
62 *266:117 *1154:B 0.000126058
63 *271:19 *1420:A 6.97034e-05
64 *271:59 *1155:B 7.23602e-05
65 *271:59 *370:91 7.06865e-05
66 *300:42 *370:26 0.000302749
67 *368:53 *370:16 1.91597e-05
68 *368:67 *1153:B 1.91597e-05
69 *368:67 *1420:A 5.83121e-06
70 *368:67 *370:16 0.00023301
71 *369:27 *1123:A 2.9381e-05
*RES
1 *1347:Q *370:4 1.6 
2 *370:4 *370:16 15.225 
3 *370:16 *370:18 1.38 
4 *370:18 *370:22 6.695 
5 *370:22 *370:26 9.695 
6 *370:26 *1152:A1 9.795 
7 *370:26 *1111:A1 4.215 
8 *370:22 *1123:A 10.925 
9 *370:18 *1153:B 4.395 
10 *370:16 *1420:A 5.61 
11 *370:4 *370:87 2.52 
12 *370:87 *370:91 4.145 
13 *370:91 *1154:B 6.12 
14 *370:91 *1155:B 4.47 
15 *370:87 *1095:A 3.445 
*END

*D_NET *371 0.00565217
*CONN
*I *1218:A I *D sky130_fd_sc_hd__nand3_2
*I *1219:A1 I *D sky130_fd_sc_hd__a21o_2
*I *1208:B I *D sky130_fd_sc_hd__nand2b_2
*I *1216:A_N I *D sky130_fd_sc_hd__nand2b_2
*I *1222:A1 I *D sky130_fd_sc_hd__a31o_2
*I *1429:A I *D sky130_fd_sc_hd__dlygate4sd3_1
*I *1221:A I *D sky130_fd_sc_hd__and4_2
*I *1318:Q O *D sky130_fd_sc_hd__dfxtp_2
*CAP
1 *1218:A 0.000385504
2 *1219:A1 0
3 *1208:B 0.000288328
4 *1216:A_N 2.82506e-05
5 *1222:A1 3.69588e-05
6 *1429:A 9.22799e-05
7 *1221:A 0.000871505
8 *1318:Q 0.00013136
9 *371:74 0.000462207
10 *371:54 0.000447562
11 *371:50 0.000254468
12 *371:37 0.000312536
13 *371:6 0.00086635
14 *1208:B *1208:A_N 0
15 *1208:B *1210:A 0.000151756
16 *1208:B *375:45 8.53113e-06
17 *1218:A *1218:B 5.4155e-06
18 *1218:A *1401:A 2.11084e-05
19 *1218:A *375:39 0.000207777
20 *1222:A1 *376:31 4.66108e-05
21 *371:37 *1219:B1 0
22 *371:37 *1221:B 0.00035825
23 *371:37 *377:28 0
24 *371:50 *375:45 3.31204e-05
25 *371:54 *375:39 0
26 *371:54 *375:45 4.80285e-05
27 *371:74 *375:39 4.99619e-05
28 *371:74 *375:45 4.35432e-05
29 *1212:B *1208:B 0
30 *1217:A1 *1208:B 0.000155351
31 *1217:A2 *1208:B 4.41857e-05
32 *1220:B *1429:A 0
33 *1220:C *1218:A 0.000201503
34 *1318:CLK *371:37 0
35 *1318:D *1221:A 9.97188e-05
36 *1321:D *371:37 0
*RES
1 *1318:Q *371:6 3.085 
2 *371:6 *1221:A 8.965 
3 *371:6 *1429:A 6.98 
4 *1221:A *371:37 8.49 
5 *371:37 *1222:A1 4.05 
6 *371:37 *371:50 2.87 
7 *371:50 *371:54 1.755 
8 *371:54 *1216:A_N 2.05 
9 *371:54 *1208:B 11.825 
10 *371:50 *371:74 1.14 
11 *371:74 *1219:A1 1.6 
12 *371:74 *1218:A 7.15 
*END

*D_NET *372 0.00669393
*CONN
*I *1244:A1 I *D sky130_fd_sc_hd__a21o_2
*I *1406:A I *D sky130_fd_sc_hd__dlygate4sd3_1
*I *1242:A1 I *D sky130_fd_sc_hd__a211o_2
*I *1247:A1 I *D sky130_fd_sc_hd__a31o_2
*I *1210:A I *D sky130_fd_sc_hd__or3_2
*I *1328:Q O *D sky130_fd_sc_hd__dfxtp_2
*CAP
1 *1244:A1 2.08101e-05
2 *1406:A 0
3 *1242:A1 9.82634e-05
4 *1247:A1 0
5 *1210:A 0.000365498
6 *1328:Q 0.000400073
7 *372:40 0.000182216
8 *372:38 0.000302228
9 *372:14 0.000744419
10 *372:8 0.000976459
11 *1210:A *1210:B 0.000370371
12 *1210:A *373:20 9.12494e-06
13 *372:14 *373:20 1.31338e-05
14 *372:40 *1244:B1 4.82863e-05
15 *1173:B *372:14 0
16 *1208:B *1210:A 0.000151756
17 *1242:A2 *1242:A1 3.4344e-05
18 *1242:B1 *1242:A1 8.18551e-05
19 *1244:A2 *372:38 2.92496e-05
20 *1247:B1 *372:14 5.83121e-06
21 *1346:CLK *372:14 0
22 *213:17 *372:14 0.000346434
23 *213:32 *372:14 5.4003e-05
24 *213:41 *372:14 0.000252282
25 *213:41 *372:38 0.000262803
26 *213:45 *1242:A1 0.000515617
27 *213:45 *372:38 3.66286e-05
28 *213:45 *372:40 0.000223632
29 *240:24 *1210:A 0.000265776
30 *241:8 *372:14 0
31 *241:8 *372:38 0
32 *241:18 *372:8 0.000421023
33 *241:20 *372:8 8.46717e-05
34 *241:73 *372:38 0
35 *273:65 *1242:A1 1.05984e-05
36 *273:78 *1242:A1 0.000386543
37 *318:10 *372:14 0
*RES
1 *1328:Q *372:8 8.88 
2 *372:8 *372:14 10.295 
3 *372:14 *1210:A 13.955 
4 *372:14 *1247:A1 1.6 
5 *372:8 *372:38 6.215 
6 *372:38 *372:40 2.175 
7 *372:40 *1242:A1 7 
8 *372:40 *1406:A 1.6 
9 *372:38 *1244:A1 1.96 
*END

*D_NET *373 0.00419279
*CONN
*I *1244:B1 I *D sky130_fd_sc_hd__a21o_2
*I *1245:B I *D sky130_fd_sc_hd__nand3_2
*I *1247:A2 I *D sky130_fd_sc_hd__a31o_2
*I *1210:B I *D sky130_fd_sc_hd__or3_2
*I *1329:Q O *D sky130_fd_sc_hd__dfxtp_2
*CAP
1 *1244:B1 0.000189528
2 *1245:B 4.13754e-05
3 *1247:A2 0
4 *1210:B 0.00046517
5 *1329:Q 0.000171081
6 *373:20 0.000620205
7 *373:14 0.000288022
8 *373:10 0.00045222
9 *1210:A *1210:B 0.000370371
10 *1210:A *373:20 9.12494e-06
11 *1243:A2 *1245:B 2.75145e-05
12 *1244:A2 *1244:B1 2.15594e-05
13 *1248:A2 *1245:B 1.08758e-05
14 *1248:A2 *373:14 2.78732e-05
15 *1248:A2 *373:20 7.26551e-05
16 *1248:B1 *373:20 0.000187766
17 *213:17 *373:20 6.75113e-06
18 *213:41 *1244:B1 0.000211632
19 *213:41 *373:14 3.98869e-05
20 *239:33 *1244:B1 7.8848e-05
21 *239:35 *1210:B 8.59401e-05
22 *239:35 *1244:B1 8.48193e-05
23 *239:35 *373:14 8.87475e-05
24 *239:35 *373:20 0.000201984
25 *240:24 *1210:B 0.000302677
26 *241:18 *373:10 7.47457e-05
27 *372:14 *373:20 1.31338e-05
28 *372:40 *1244:B1 4.82863e-05
*RES
1 *1329:Q *373:10 5.79 
2 *373:10 *373:14 2.34 
3 *373:14 *373:20 4.995 
4 *373:20 *1210:B 11.445 
5 *373:20 *1247:A2 3.6 
6 *373:14 *1245:B 4.41 
7 *373:10 *1244:B1 9 
*END

*D_NET *374 0.00175174
*CONN
*I *1413:A I *D sky130_fd_sc_hd__dlygate4sd3_1
*I *1210:C I *D sky130_fd_sc_hd__or3_2
*I *1330:Q O *D sky130_fd_sc_hd__dfxtp_2
*CAP
1 *1413:A 0.000265235
2 *1210:C 0.000208619
3 *1330:Q 0.00026915
4 *374:8 0.000743004
5 *1247:B1 *1413:A 0
6 *1247:B1 *374:8 7.30505e-05
7 *1319:D *1210:C 0.000134123
8 *1330:D *1413:A 5.85556e-05
9 *1346:D *1413:A 0
10 *318:10 *1413:A 0
*RES
1 *1330:Q *374:8 6.81 
2 *374:8 *1210:C 7.275 
3 *374:8 *1413:A 8.295 
*END

*D_NET *375 0.00408333
*CONN
*I *1219:A2 I *D sky130_fd_sc_hd__a21o_2
*I *1208:A_N I *D sky130_fd_sc_hd__nand2b_2
*I *1221:B I *D sky130_fd_sc_hd__and4_2
*I *1222:A2 I *D sky130_fd_sc_hd__a31o_2
*I *1218:B I *D sky130_fd_sc_hd__nand3_2
*I *1401:A I *D sky130_fd_sc_hd__dlygate4sd3_1
*I *1319:Q O *D sky130_fd_sc_hd__dfxtp_2
*CAP
1 *1219:A2 0
2 *1208:A_N 0.000325686
3 *1221:B 0.000143659
4 *1222:A2 0
5 *1218:B 4.83408e-05
6 *1401:A 0.000209128
7 *1319:Q 9.14905e-05
8 *375:45 0.000280174
9 *375:39 0.000624034
10 *375:10 0.000187126
11 *1208:A_N *1219:B1 2.97004e-06
12 *1221:B *1221:C 0.000316118
13 *375:45 *1219:B1 0
14 *1208:B *1208:A_N 0
15 *1208:B *375:45 8.53113e-06
16 *1212:C *1208:A_N 2.10841e-05
17 *1216:B *375:39 0.000207817
18 *1216:B *375:45 0.000124895
19 *1217:A1 *1208:A_N 1.747e-05
20 *1217:A2 *1208:A_N 6.47357e-05
21 *1218:A *1218:B 5.4155e-06
22 *1218:A *1401:A 2.11084e-05
23 *1218:A *375:39 0.000207777
24 *1220:C *375:39 0.000201503
25 *1319:CLK *1208:A_N 0.000115945
26 *1402:A *1208:A_N 0.000325419
27 *371:37 *1221:B 0.00035825
28 *371:50 *375:45 3.31204e-05
29 *371:54 *375:39 0
30 *371:54 *375:45 4.80285e-05
31 *371:74 *375:39 4.99619e-05
32 *371:74 *375:45 4.35432e-05
*RES
1 *1319:Q *375:10 6.98 
2 *375:10 *1401:A 2.395 
3 *375:10 *1218:B 2.41 
4 *1401:A *375:39 7.015 
5 *375:39 *375:45 4.865 
6 *375:45 *1222:A2 3.6 
7 *375:45 *1221:B 8.235 
8 *375:39 *1208:A_N 12.875 
9 *375:39 *1219:A2 1.6 
*END

*D_NET *376 0.00371357
*CONN
*I *1427:A I *D sky130_fd_sc_hd__dlygate4sd3_1
*I *1221:C I *D sky130_fd_sc_hd__and4_2
*I *1222:A3 I *D sky130_fd_sc_hd__a31o_2
*I *1209:A I *D sky130_fd_sc_hd__or4b_2
*I *1219:B1 I *D sky130_fd_sc_hd__a21o_2
*I *1320:Q O *D sky130_fd_sc_hd__dfxtp_2
*CAP
1 *1427:A 8.10057e-05
2 *1221:C 0.000152658
3 *1222:A3 0
4 *1209:A 0.000162255
5 *1219:B1 0.000149149
6 *1320:Q 5.93762e-05
7 *376:33 0.000187303
8 *376:31 0.000314871
9 *376:16 0.000796099
10 *376:10 0.000650166
11 *1209:A *1209:D_N 8.56308e-05
12 *1221:C *1209:D_N 0
13 *1221:C *1221:D 7.23533e-05
14 *376:16 *1209:D_N 8.65905e-05
15 *376:16 *1425:A 0.0001249
16 *376:31 *1209:D_N 6.90225e-05
17 *376:33 *1209:D_N 2.05056e-05
18 *1208:A_N *1219:B1 2.97004e-06
19 *1212:B *1209:A 2.937e-05
20 *1220:C *1219:B1 0
21 *1221:B *1221:C 0.000316118
22 *1222:A1 *376:31 4.66108e-05
23 *1222:B1 *376:31 0.00012657
24 *1223:B *1221:C 0
25 *1321:D *1221:C 1.1561e-05
26 *1428:A *376:16 4.99619e-05
27 *242:61 *376:10 0.00011852
28 *371:37 *1219:B1 0
29 *375:45 *1219:B1 0
*RES
1 *1320:Q *376:10 6.98 
2 *376:10 *376:16 8.505 
3 *376:16 *1219:B1 7.49 
4 *376:16 *376:31 2.88 
5 *376:31 *376:33 0.45 
6 *376:33 *1209:A 4.585 
7 *376:33 *1222:A3 1.6 
8 *376:31 *1221:C 9.635 
9 *376:10 *1427:A 2.74 
*END

*D_NET *377 0.00224966
*CONN
*I *1425:A I *D sky130_fd_sc_hd__dlygate4sd3_1
*I *1209:D_N I *D sky130_fd_sc_hd__or4b_2
*I *1221:D I *D sky130_fd_sc_hd__and4_2
*I *1321:Q O *D sky130_fd_sc_hd__dfxtp_2
*CAP
1 *1425:A 4.60278e-05
2 *1209:D_N 0.000228289
3 *1221:D 0.000296607
4 *1321:Q 0.00038498
5 *377:28 0.00036269
6 *1209:A *1209:D_N 8.56308e-05
7 *1220:C *377:28 0
8 *1221:C *1209:D_N 0
9 *1221:C *1221:D 7.23533e-05
10 *1222:B1 *1209:D_N 0.00012657
11 *1223:B *1209:D_N 4.82919e-05
12 *1321:D *1221:D 7.4027e-05
13 *240:77 *1221:D 0.000223177
14 *371:37 *377:28 0
15 *376:16 *1209:D_N 8.65905e-05
16 *376:16 *1425:A 0.0001249
17 *376:31 *1209:D_N 6.90225e-05
18 *376:33 *1209:D_N 2.05056e-05
*RES
1 *1321:Q *1221:D 11.625 
2 *1321:Q *377:28 6.98 
3 *377:28 *1209:D_N 6.55 
4 *377:28 *1425:A 2.74 
*END

*D_NET *378 0.00478771
*CONN
*I *1231:A I *D sky130_fd_sc_hd__and4_2
*I *1209:B I *D sky130_fd_sc_hd__or4b_2
*I *1227:A I *D sky130_fd_sc_hd__and3_2
*I *1421:A I *D sky130_fd_sc_hd__dlygate4sd3_1
*I *1228:A1 I *D sky130_fd_sc_hd__a21o_2
*I *1225:A I *D sky130_fd_sc_hd__or2_2
*I *1322:Q O *D sky130_fd_sc_hd__dfxtp_2
*CAP
1 *1231:A 0.000216027
2 *1209:B 0.000144602
3 *1227:A 0
4 *1421:A 0.000132996
5 *1228:A1 0.000234675
6 *1225:A 6.59081e-05
7 *1322:Q 0.000510897
8 *378:65 0.000541972
9 *378:52 0.000692239
10 *378:10 0.000374581
11 *378:6 0.000206994
12 *1209:B *379:22 2.83579e-05
13 *1209:B *379:26 4.91849e-05
14 *1231:A *379:22 0
15 *378:65 *379:14 4.43871e-06
16 *378:65 *379:22 0
17 *1212:B *1231:A 0
18 *1225:B *1421:A 4.74304e-05
19 *1225:B *378:10 7.89767e-05
20 *1226:A *1225:A 9.91257e-05
21 *1226:A *1228:A1 8.9864e-05
22 *1228:B1 *1228:A1 8.46717e-05
23 *1228:B1 *378:65 2.68464e-05
24 *1229:A_N *1228:A1 0.00012657
25 *1230:B *378:65 0
26 *1231:D *378:65 1.75875e-05
27 *1323:CLK *378:52 0.000161837
28 *1323:D *1228:A1 6.77417e-05
29 *1323:D *378:52 4.55458e-05
30 *201:28 *1228:A1 4.77757e-05
31 *201:28 *378:52 4.70326e-05
32 *201:30 *1421:A 8.65961e-05
33 *240:51 *1421:A 0.000139252
34 *240:73 *1421:A 8.65961e-05
35 *240:73 *378:65 0.00016031
36 *263:33 *1421:A 0
37 *263:33 *378:10 0
38 *263:39 *1228:A1 2.97674e-05
39 *263:39 *378:10 0
40 *263:61 *1228:A1 0.000141308
*RES
1 *1322:Q *378:6 3.6 
2 *378:6 *378:10 3.635 
3 *378:10 *1225:A 3.085 
4 *378:10 *1228:A1 7.345 
5 *378:6 *1421:A 7.05 
6 *1322:Q *378:52 12.005 
7 *378:52 *1227:A 1.6 
8 *378:52 *378:65 5.48 
9 *378:65 *1209:B 5.43 
10 *378:65 *1231:A 6.795 
*END

*D_NET *379 0.00201648
*CONN
*I *1426:A I *D sky130_fd_sc_hd__dlygate4sd3_1
*I *1209:C I *D sky130_fd_sc_hd__or4b_2
*I *1231:B I *D sky130_fd_sc_hd__and4_2
*I *1227:B I *D sky130_fd_sc_hd__and3_2
*I *1323:Q O *D sky130_fd_sc_hd__dfxtp_2
*CAP
1 *1426:A 0
2 *1209:C 0
3 *1231:B 0.000117807
4 *1227:B 0.00010103
5 *1323:Q 0.000172717
6 *379:26 0.000411218
7 *379:22 0.000394734
8 *379:14 0.00037507
9 *1231:B *1230:A 7.01303e-05
10 *1231:B *1231:C 5.83121e-06
11 *1209:B *379:22 2.83579e-05
12 *1209:B *379:26 4.91849e-05
13 *1228:B1 *379:14 3.86529e-05
14 *1230:B *1227:B 0.00011246
15 *1231:A *379:22 0
16 *1231:D *1231:B 1.32017e-05
17 *240:73 *379:14 0.000121643
18 *378:65 *379:14 4.43871e-06
19 *378:65 *379:22 0
*RES
1 *1323:Q *379:14 8.57 
2 *379:14 *379:22 7.195 
3 *379:22 *379:26 4.865 
4 *379:26 *1227:B 5.79 
5 *379:26 *1231:B 5.43 
6 *379:22 *1209:C 1.6 
7 *379:14 *1426:A 1.6 
*END

*D_NET *380 0.00175698
*CONN
*I *1211:A I *D sky130_fd_sc_hd__or4_2
*I *1231:C I *D sky130_fd_sc_hd__and4_2
*I *1230:A I *D sky130_fd_sc_hd__or2_2
*I *1324:Q O *D sky130_fd_sc_hd__dfxtp_2
*CAP
1 *1211:A 8.71779e-05
2 *1231:C 3.11732e-05
3 *1230:A 0.000139487
4 *1324:Q 0.000201483
5 *380:10 0.000350526
6 *380:8 0.000468527
7 *1217:B1_N *380:8 0.000310383
8 *1230:B *1230:A 4.77757e-05
9 *1231:B *1230:A 7.01303e-05
10 *1231:B *1231:C 5.83121e-06
11 *1231:D *1230:A 3.86529e-05
12 *1231:D *1231:C 5.83121e-06
13 *1232:C *1230:A 0
14 *1324:D *1230:A 0
15 *1324:D *380:10 0
*RES
1 *1324:Q *380:8 6.465 
2 *380:8 *380:10 2.91 
3 *380:10 *1230:A 6.135 
4 *380:10 *1231:C 4.05 
5 *380:8 *1211:A 4.98 
*END

*D_NET *381 0.00357681
*CONN
*I *1239:A I *D sky130_fd_sc_hd__and4_2
*I *1211:B I *D sky130_fd_sc_hd__or4_2
*I *1236:A1 I *D sky130_fd_sc_hd__a21o_2
*I *1237:A I *D sky130_fd_sc_hd__and3_2
*I *1233:A I *D sky130_fd_sc_hd__or2_2
*I *1423:A I *D sky130_fd_sc_hd__dlygate4sd3_1
*I *1325:Q O *D sky130_fd_sc_hd__dfxtp_2
*CAP
1 *1239:A 4.35999e-05
2 *1211:B 9.1703e-05
3 *1236:A1 0.000233948
4 *1237:A 0
5 *1233:A 0.000174676
6 *1423:A 0.000185002
7 *1325:Q 0.000334642
8 *381:65 0.000508728
9 *381:45 0.000261313
10 *381:43 0.000556412
11 *381:28 0.000479937
12 *1211:B *1211:C 0.00010163
13 *1236:A1 *1237:B 7.47262e-06
14 *1239:A *1211:C 3.72081e-05
15 *381:43 *1237:B 5.76752e-05
16 *381:45 *1237:B 2.09976e-05
17 *381:65 *1237:B 7.5687e-06
18 *1217:B1_N *1423:A 6.14504e-05
19 *1236:A2 *1236:A1 0.00015856
20 *1237:C *1236:A1 4.77807e-05
21 *1324:CLK *1423:A 2.86691e-05
22 *1327:D *1211:B 9.23804e-06
23 *1327:D *1239:A 3.05648e-05
24 *1327:D *381:65 5.14473e-05
25 *240:32 *1423:A 3.56402e-05
26 *240:32 *381:28 5.09431e-05
27 *240:47 *1423:A 0
*RES
1 *1325:Q *1423:A 10.065 
2 *1325:Q *381:28 5.775 
3 *381:28 *1233:A 6.12 
4 *381:28 *381:43 4.9325 
5 *381:43 *381:45 0.6225 
6 *381:45 *1237:A 1.6 
7 *381:45 *1236:A1 4.825 
8 *381:43 *381:65 6.4325 
9 *381:65 *1211:B 5.745 
10 *381:65 *1239:A 4.725 
*END

*D_NET *382 0.0023328
*CONN
*I *1211:C I *D sky130_fd_sc_hd__or4_2
*I *1239:B I *D sky130_fd_sc_hd__and4_2
*I *1431:A I *D sky130_fd_sc_hd__dlygate4sd3_1
*I *1237:B I *D sky130_fd_sc_hd__and3_2
*I *1326:Q O *D sky130_fd_sc_hd__dfxtp_2
*CAP
1 *1211:C 0.000170627
2 *1239:B 0.00034537
3 *1431:A 0
4 *1237:B 0.000325612
5 *1326:Q 0.000142885
6 *382:23 0.000174742
7 *382:10 0.000468497
8 *1211:B *1211:C 0.00010163
9 *1236:A1 *1237:B 7.47262e-06
10 *1237:C *1237:B 3.62258e-06
11 *1239:A *1211:C 3.72081e-05
12 *1239:D *1239:B 0.000421206
13 *1239:D *382:10 0
14 *1248:C1 *382:10 1.83756e-05
15 *1327:CLK *1237:B 2.93136e-05
16 *1327:D *382:10 0
17 *1363:A *382:10 0
18 *263:113 *382:10 0
19 *381:43 *1237:B 5.76752e-05
20 *381:45 *1237:B 2.09976e-05
21 *381:65 *1237:B 7.5687e-06
*RES
1 *1326:Q *382:10 5.685 
2 *382:10 *1237:B 8.43 
3 *382:10 *382:23 2 
4 *382:23 *1431:A 1.6 
5 *382:23 *1239:B 5.5 
6 *1239:B *1211:C 10.62 
*END

*D_NET *383 0.00228768
*CONN
*I *1375:A I *D sky130_fd_sc_hd__dlygate4sd3_1
*I *1239:C I *D sky130_fd_sc_hd__and4_2
*I *1211:D I *D sky130_fd_sc_hd__or4_2
*I *1327:Q O *D sky130_fd_sc_hd__dfxtp_2
*CAP
1 *1375:A 0.000154012
2 *1239:C 0.000161636
3 *1211:D 0.000389532
4 *1327:Q 0.000108823
5 *383:21 0.000387746
6 *383:8 0.000570452
7 *1212:D *1211:D 7.29219e-05
8 *1239:D *1239:C 2.86975e-05
9 *195:20 *1211:D 3.97719e-05
10 *195:20 *383:21 8.30853e-06
11 *213:6 *1239:C 0.000197822
12 *240:24 *1211:D 0.000167957
*RES
1 *1327:Q *383:8 4.74 
2 *383:8 *1211:D 10.665 
3 *383:8 *383:21 1.125 
4 *383:21 *1239:C 6.465 
5 *383:21 *1375:A 6 
*END

*D_NET *384 0.0076042
*CONN
*I *1081:S0 I *D sky130_fd_sc_hd__mux4_2
*I *1254:A2 I *D sky130_fd_sc_hd__a311o_2
*I *1253:A1 I *D sky130_fd_sc_hd__a21oi_2
*I *1257:A3 I *D sky130_fd_sc_hd__a31o_2
*I *1256:A2 I *D sky130_fd_sc_hd__a31o_2
*I *1079:S0 I *D sky130_fd_sc_hd__mux4_2
*I *1251:B1_N I *D sky130_fd_sc_hd__o21ba_2
*I *1419:A I *D sky130_fd_sc_hd__dlygate4sd3_1
*I *1331:Q O *D sky130_fd_sc_hd__dfxtp_2
*CAP
1 *1081:S0 0.000277669
2 *1254:A2 2.40241e-05
3 *1253:A1 0
4 *1257:A3 0
5 *1256:A2 0.000111995
6 *1079:S0 0.000874049
7 *1251:B1_N 0.00023424
8 *1419:A 0
9 *1331:Q 5.61903e-05
10 *384:64 0.000207476
11 *384:62 0.000131032
12 *384:33 0.000851077
13 *384:29 0.000156885
14 *384:27 0.000358645
15 *384:8 0.000289935
16 *1079:S0 *1082:S 0.000117323
17 *1079:S0 *1257:A1 0.000116958
18 *1079:S0 *386:12 0.000120744
19 *1079:S0 *386:42 0.000543309
20 *1081:S0 *1081:S1 0.000191675
21 *1081:S0 *1409:A 0.000163992
22 *1254:A2 *1254:A1 4.99619e-05
23 *1256:A2 *1257:A2 7.23533e-05
24 *384:29 *1254:A1 8.34281e-06
25 *384:64 *1257:A1 4.40028e-05
26 *1082:A1 *1081:S0 0
27 *1083:A1 *1256:A2 9.54469e-05
28 *1083:A2 *1256:A2 8.73389e-06
29 *1252:A2 *384:8 0
30 *1252:A2 *384:27 0
31 *1252:B1 *1251:B1_N 6.80075e-05
32 *1253:A2 *384:29 3.04245e-05
33 *1254:A3 *1254:A2 1.85674e-05
34 *1254:A3 *384:29 0.000224698
35 *1254:B1 *1254:A2 3.06704e-05
36 *1254:B1 *384:27 0.000106544
37 *1256:A3 *1256:A2 1.71824e-05
38 *1257:B1 *384:64 0.000160314
39 *1258:A *384:33 4.82919e-05
40 *1258:A *384:64 0.000310264
41 *1331:D *1251:B1_N 7.00889e-06
42 *1371:A *384:27 7.49722e-05
43 *3:30 *384:27 2.00655e-05
44 *105:21 *1079:S0 0
45 *105:21 *1251:B1_N 0
46 *105:21 *1256:A2 2.92496e-05
47 *195:50 *1251:B1_N 0
48 *219:35 *1079:S0 0
49 *219:35 *1251:B1_N 0
50 *220:23 *384:29 0.000113237
51 *239:33 *1251:B1_N 0.000108659
52 *248:18 *384:27 0.000105052
53 *248:18 *384:29 0.00048513
54 *248:18 *384:33 0.0001249
55 *273:97 *1251:B1_N 0.00011099
56 *273:105 *384:8 0.000120186
57 *273:105 *384:27 0.000183729
*RES
1 *1331:Q *384:8 4.98 
2 *384:8 *1419:A 3.6 
3 *384:8 *384:27 7.895 
4 *384:27 *384:29 4.59 
5 *384:29 *384:33 3.14 
6 *384:33 *1251:B1_N 8.415 
7 *384:33 *1079:S0 14.2175 
8 *384:29 *384:62 0.615 
9 *384:62 *384:64 3.555 
10 *384:64 *1256:A2 7.775 
11 *384:64 *1257:A3 1.6 
12 *384:62 *1253:A1 1.6 
13 *384:27 *1254:A2 2.665 
14 *1079:S0 *1081:S0 9.97 
*END

*D_NET *385 0.00331679
*CONN
*I *1398:A I *D sky130_fd_sc_hd__dlygate4sd3_1
*I *1082:S I *D sky130_fd_sc_hd__mux2_1
*I *1256:A1 I *D sky130_fd_sc_hd__a31o_2
*I *1257:A2 I *D sky130_fd_sc_hd__a31o_2
*I *1254:A1 I *D sky130_fd_sc_hd__a311o_2
*I *1332:Q O *D sky130_fd_sc_hd__dfxtp_2
*CAP
1 *1398:A 0
2 *1082:S 0.000206714
3 *1256:A1 0
4 *1257:A2 0.000130731
5 *1254:A1 0.000148902
6 *1332:Q 0
7 *385:25 0.000317411
8 *385:21 0.000608217
9 *385:4 0.000363725
10 *1082:S *386:42 0.000362972
11 *1079:S0 *1082:S 0.000117323
12 *1253:B1 *1254:A1 1.34361e-05
13 *1254:A2 *1254:A1 4.99619e-05
14 *1254:A3 *1254:A1 0.00011577
15 *1255:B *1254:A1 0.000195585
16 *1256:A2 *1257:A2 7.23533e-05
17 *1256:A3 *385:21 0.00015896
18 *1256:A3 *385:25 6.78944e-05
19 *219:27 *1082:S 2.75229e-05
20 *219:35 *1082:S 0.000223277
21 *239:73 *1254:A1 3.39151e-05
22 *244:16 *1082:S 9.37731e-05
23 *384:29 *1254:A1 8.34281e-06
*RES
1 *1332:Q *385:4 1.6 
2 *385:4 *1254:A1 9.245 
3 *385:4 *385:21 3.48 
4 *385:21 *385:25 2.445 
5 *385:25 *1257:A2 7.265 
6 *385:25 *1256:A1 1.6 
7 *385:21 *1082:S 12.38 
8 *385:21 *1398:A 1.6 
*END

*D_NET *386 0.00423127
*CONN
*I *1079:S1 I *D sky130_fd_sc_hd__mux4_2
*I *1081:S1 I *D sky130_fd_sc_hd__mux4_2
*I *1257:A1 I *D sky130_fd_sc_hd__a31o_2
*I *1256:B1 I *D sky130_fd_sc_hd__a31o_2
*I *1333:Q O *D sky130_fd_sc_hd__dfxtp_2
*CAP
1 *1079:S1 0
2 *1081:S1 0.000371702
3 *1257:A1 0.000201572
4 *1256:B1 0
5 *1333:Q 4.86625e-05
6 *386:42 0.000685508
7 *386:12 0.000348432
8 *386:6 0.000509328
9 *1081:S1 *1079:A3 4.77757e-05
10 *1081:S1 *1409:A 0.000185411
11 *1081:S1 *390:12 0.000110492
12 *1081:S1 *394:12 4.77719e-05
13 *1079:S0 *1257:A1 0.000116958
14 *1079:S0 *386:12 0.000120744
15 *1079:S0 *386:42 0.000543309
16 *1081:S0 *1081:S1 0.000191675
17 *1082:A1 *386:42 9.30717e-05
18 *1082:S *386:42 0.000362972
19 *1083:A1 *1257:A1 0
20 *1257:B1 *1257:A1 8.64421e-05
21 *1272:B *1081:S1 0
22 *1438:A *1081:S1 2.68464e-05
23 *219:10 *1081:S1 0
24 *219:35 *386:42 1.82476e-05
25 *219:67 *386:42 1.23331e-05
26 *244:16 *386:6 3.03775e-05
27 *244:16 *386:12 2.76356e-05
28 *268:79 *1081:S1 0
29 *384:64 *1257:A1 4.40028e-05
*RES
1 *1333:Q *386:6 2.395 
2 *386:6 *386:12 4.685 
3 *386:12 *1256:B1 3.6 
4 *386:12 *1257:A1 6.915 
5 *386:6 *386:42 12.415 
6 *386:42 *1081:S1 13.67 
7 *386:42 *1079:S1 1.6 
*END

*D_NET *387 0.00376798
*CONN
*I *1405:A I *D sky130_fd_sc_hd__dlygate4sd3_1
*I *1261:A1 I *D sky130_fd_sc_hd__a31o_2
*I *1263:A1 I *D sky130_fd_sc_hd__a31o_2
*I *1080:B I *D sky130_fd_sc_hd__or2_2
*I *1078:B I *D sky130_fd_sc_hd__nand2_2
*I *1084:B I *D sky130_fd_sc_hd__or2_2
*I *1334:Q O *D sky130_fd_sc_hd__dfxtp_2
*CAP
1 *1405:A 0
2 *1261:A1 0
3 *1263:A1 0.000185333
4 *1080:B 2.51931e-05
5 *1078:B 0
6 *1084:B 0.000121624
7 *1334:Q 4.00344e-05
8 *387:51 0.000402926
9 *387:18 0.000211786
10 *387:12 0.000168674
11 *387:10 0.000471354
12 *387:8 0.000240476
13 *387:10 *1424:A 5.16418e-05
14 *387:12 *1424:A 7.06865e-05
15 *387:18 *1084:A 0
16 *1078:A *387:12 8.53113e-06
17 *1078:A *387:18 0.000206824
18 *1083:B1 *387:10 0
19 *1259:C *387:8 4.61658e-05
20 *1259:C *387:10 6.9451e-05
21 *1261:A2 *1263:A1 9.51207e-06
22 *1261:B1 *387:10 0
23 *1261:B1 *387:51 4.99619e-05
24 *1263:A3 *1263:A1 0.00018534
25 *1265:A2 *1084:B 0.000213912
26 *1265:A2 *387:10 2.07184e-05
27 *1265:A2 *387:12 0.000103592
28 *1265:A2 *387:18 0.0002337
29 *1265:A2 *387:51 4.66108e-05
30 *1265:B1 *1084:B 2.04101e-05
31 *92:21 *1080:B 4.66108e-05
32 *196:51 *1263:A1 9.93223e-06
33 *196:51 *387:10 8.08153e-06
34 *196:51 *387:12 1.14559e-05
35 *196:51 *387:51 8.38111e-05
36 *196:55 *1263:A1 1.30169e-05
37 *248:10 *387:8 0.000108322
38 *248:10 *387:10 0.000189426
39 *248:18 *387:10 7.23602e-05
40 *262:10 *387:18 2.05056e-05
41 *273:8 *387:10 0
*RES
1 *1334:Q *387:8 4.98 
2 *387:8 *387:10 4.95 
3 *387:10 *387:12 1.38 
4 *387:12 *387:18 5.195 
5 *387:18 *1084:B 4.705 
6 *387:18 *1078:B 1.6 
7 *387:12 *1080:B 4.05 
8 *387:10 *387:51 4.865 
9 *387:51 *1263:A1 4.12 
10 *387:51 *1261:A1 1.6 
11 *387:8 *1405:A 3.6 
*END

*D_NET *388 0.00147805
*CONN
*I *1424:A I *D sky130_fd_sc_hd__dlygate4sd3_1
*I *1084:A I *D sky130_fd_sc_hd__or2_2
*I *1335:Q O *D sky130_fd_sc_hd__dfxtp_2
*CAP
1 *1424:A 0.00023468
2 *1084:A 0.000121878
3 *1335:Q 3.38751e-05
4 *388:6 0.000390433
5 *1067:A *1084:A 5.16348e-05
6 *1263:B1 *1424:A 7.3151e-05
7 *1263:B1 *388:6 4.82863e-05
8 *1265:A2 *1084:A 0
9 *92:21 *1424:A 0.000198046
10 *196:51 *1424:A 6.28843e-05
11 *273:10 *1084:A 0.000140852
12 *387:10 *1424:A 5.16418e-05
13 *387:12 *1424:A 7.06865e-05
14 *387:18 *1084:A 0
*RES
1 *1335:Q *388:6 2.05 
2 *388:6 *1084:A 8.51 
3 *388:6 *1424:A 9.5 
*END

*D_NET *389 0.00207774
*CONN
*I *1415:A I *D sky130_fd_sc_hd__dlygate4sd3_1
*I *1079:A0 I *D sky130_fd_sc_hd__mux4_2
*I *1336:Q O *D sky130_fd_sc_hd__dfxtp_2
*CAP
1 *1415:A 0.000150069
2 *1079:A0 0.000426751
3 *1336:Q 7.4327e-05
4 *389:8 0.000651146
5 *1158:A *1415:A 4.82919e-05
6 *1267:A1 *1079:A0 0.000124007
7 *1267:A2 *1079:A0 8.09157e-05
8 *1267:A3 *1079:A0 8.82557e-05
9 *1267:C1 *1079:A0 0.000164874
10 *1297:CLK *1079:A0 3.59311e-05
11 *1297:D *1415:A 0
12 *1336:D *1079:A0 4.82919e-05
13 *268:31 *1079:A0 0.000113237
14 *268:46 *1415:A 7.16437e-05
*RES
1 *1336:Q *389:8 4.725 
2 *389:8 *1079:A0 11.64 
3 *389:8 *1415:A 6.45 
*END

*D_NET *390 0.00122865
*CONN
*I *1416:A I *D sky130_fd_sc_hd__dlygate4sd3_1
*I *1079:A1 I *D sky130_fd_sc_hd__mux4_2
*I *1337:Q O *D sky130_fd_sc_hd__dfxtp_2
*CAP
1 *1416:A 0
2 *1079:A1 0.000117226
3 *1337:Q 0.000148282
4 *390:12 0.000265508
5 *1079:A1 *1409:A 0
6 *1081:S1 *390:12 0.000110492
7 *1082:A1 *1079:A1 0.00010914
8 *1267:A2 *390:12 0.000172342
9 *268:79 *390:12 0.000305658
*RES
1 *1337:Q *390:12 9.845 
2 *390:12 *1079:A1 8 
3 *390:12 *1416:A 1.6 
*END

*D_NET *391 0.00313606
*CONN
*I *1417:A I *D sky130_fd_sc_hd__dlygate4sd3_1
*I *1081:A0 I *D sky130_fd_sc_hd__mux4_2
*I *1338:Q O *D sky130_fd_sc_hd__dfxtp_2
*CAP
1 *1417:A 0.000382197
2 *1081:A0 0.000344481
3 *1338:Q 0
4 *391:6 0.000726678
5 *1081:A0 *1081:A1 8.6076e-05
6 rx_data[1] *1417:A 0.000155366
7 *1266:B *1081:A0 0.000149399
8 *1267:A1 *1081:A0 0.000391608
9 *1267:A1 *1417:A 6.28498e-05
10 *1270:A *1081:A0 5.17316e-05
11 *1271:A1 *1081:A0 0
12 *1271:A1 *1417:A 3.17852e-05
13 *1271:B1 *1081:A0 0.000257539
14 *1437:A *1417:A 0.000160641
15 *1438:A *1081:A0 0.000194962
16 *1438:A *1417:A 0
17 *3:30 *1081:A0 9.41396e-05
18 *219:71 *1081:A0 4.66108e-05
*RES
1 *1338:Q *391:6 3.6 
2 *391:6 *1081:A0 13.35 
3 *391:6 *1417:A 10.71 
*END

*D_NET *392 0.00137269
*CONN
*I *1412:A I *D sky130_fd_sc_hd__dlygate4sd3_1
*I *1081:A1 I *D sky130_fd_sc_hd__mux4_2
*I *1339:Q O *D sky130_fd_sc_hd__dfxtp_2
*CAP
1 *1412:A 0.000131183
2 *1081:A1 0.000283508
3 *1339:Q 3.81447e-05
4 *392:8 0.000452836
5 *1081:A0 *1081:A1 8.6076e-05
6 *1273:B1 *1081:A1 0
7 *1281:A1 *1412:A 0
8 *1339:D *1412:A 0
9 *1438:A *1081:A1 0.000141458
10 *1438:A *1412:A 8.98727e-05
11 *245:57 *392:8 1.4399e-05
12 *268:79 *1081:A1 0.00013521
*RES
1 *1339:Q *392:8 4.05 
2 *392:8 *1081:A1 9.195 
3 *392:8 *1412:A 6.255 
*END

*D_NET *393 0.00133895
*CONN
*I *1079:A2 I *D sky130_fd_sc_hd__mux4_2
*I *1410:A I *D sky130_fd_sc_hd__dlygate4sd3_1
*I *1340:Q O *D sky130_fd_sc_hd__dfxtp_2
*CAP
1 *1079:A2 0.00033069
2 *1410:A 0.000545765
3 *1340:Q 0.000215075
4 *1079:A2 *394:12 0.000122801
5 *1274:A *1410:A 1.1392e-05
6 *1276:B *1079:A2 4.77757e-05
7 *1277:B1 *1079:A2 1.54878e-05
8 *1277:B1 *1410:A 4.99619e-05
*RES
1 *1340:Q *1410:A 6.425 
2 *1410:A *1079:A2 7.37 
*END

*D_NET *394 0.00110084
*CONN
*I *1079:A3 I *D sky130_fd_sc_hd__mux4_2
*I *1409:A I *D sky130_fd_sc_hd__dlygate4sd3_1
*I *1341:Q O *D sky130_fd_sc_hd__dfxtp_2
*CAP
1 *1079:A3 2.13421e-05
2 *1409:A 6.65645e-05
3 *1341:Q 0.000153386
4 *394:12 0.000241293
5 *1079:A1 *1409:A 0
6 *1079:A2 *394:12 0.000122801
7 *1081:S0 *1409:A 0.000163992
8 *1081:S1 *1079:A3 4.77757e-05
9 *1081:S1 *1409:A 0.000185411
10 *1081:S1 *394:12 4.77719e-05
11 *219:12 *394:12 4.1652e-06
12 *219:16 *394:12 4.63352e-05
*RES
1 *1341:Q *394:12 8.555 
2 *394:12 *1409:A 8 
3 *394:12 *1079:A3 2.05 
*END

*D_NET *395 0.00162724
*CONN
*I *1081:A2 I *D sky130_fd_sc_hd__mux4_2
*I *1408:A I *D sky130_fd_sc_hd__dlygate4sd3_1
*I *1342:Q O *D sky130_fd_sc_hd__dfxtp_2
*CAP
1 *1081:A2 0.000155331
2 *1408:A 2.74609e-05
3 *1342:Q 6.04369e-05
4 *395:10 0.000243229
5 *1081:A2 *1081:A3 0.000279732
6 *1081:A2 *1411:A 8.65905e-05
7 *1279:B1 *1081:A2 0.000119575
8 *1279:B1 *1408:A 5.30673e-05
9 *1279:C1 *1081:A2 0.0001947
10 *1279:C1 *1408:A 0.000119279
11 *1281:A3 *395:10 4.94404e-05
12 *1438:A *1081:A2 0.000238403
13 *102:92 *395:10 0
*RES
1 *1342:Q *395:10 6.725 
2 *395:10 *1408:A 2.755 
3 *395:10 *1081:A2 6.88 
*END

*D_NET *396 0.00146189
*CONN
*I *1081:A3 I *D sky130_fd_sc_hd__mux4_2
*I *1411:A I *D sky130_fd_sc_hd__dlygate4sd3_1
*I *1343:Q O *D sky130_fd_sc_hd__dfxtp_2
*CAP
1 *1081:A3 0.000133658
2 *1411:A 1.22258e-05
3 *1343:Q 0.000132057
4 *396:10 0.000277941
5 *1081:A2 *1081:A3 0.000279732
6 *1081:A2 *1411:A 8.65905e-05
7 *1272:B *396:10 0
8 *1278:A *1081:A3 1.19928e-05
9 *1279:B1 *1081:A3 7.49327e-05
10 *1279:B1 *1411:A 8.8266e-05
11 *1280:A *1081:A3 1.81039e-05
12 *1281:C1 *396:10 9.32826e-05
13 *1434:A *396:10 5.21545e-05
14 *1438:A *1081:A3 6.60042e-05
15 *1438:A *396:10 0.000115464
16 *272:57 *396:10 1.94805e-05
*RES
1 *1343:Q *396:10 9.02 
2 *396:10 *1411:A 2.395 
3 *396:10 *1081:A3 5.62 
*END
